%BLOCK LATTICE_CART
ang    # angstrom units
  10.246000000000    0.000000000000     0.000000000000   
  0.000000000000     16.147000000000    0.000000000000   
 -3.320685691537     0.000000000000     18.871061643109  
%ENDBLOCK LATTICE_CART

%BLOCK POSITIONS_FRAC
C      0.029033333333     0.482200000000     0.089650000000   
C      0.304300000000     0.232200000000     0.410350000000   
C      0.019766666667     0.274700000000     0.455100000000   
C      0.295600000000     0.139050000000     0.488950000000   
C      0.033533333333     0.419800000000     0.038600000000   
C      0.005733333333     0.485700000000     0.054350000000   
C      0.054800000000     0.415050000000     0.073050000000   
C      0.052633333333     0.445800000000     0.098350000000   
C      0.059700000000     0.446250000000     0.162800000000   
C      0.037733333333     0.389050000000     0.011050000000   
C      0.313566666667     0.024700000000     0.044900000000   
C      0.327600000000     0.235700000000     0.445650000000   
C      0.260733333333     0.366400000000     0.422450000000   
C      0.180533333333     0.368900000000     0.424750000000   
C      0.136666666667     0.376750000000     0.408350000000   
C      0.100100000000     0.369700000000     0.428700000000   
C      0.126833333333     0.389100000000     0.373400000000   
C      0.161033333333     0.394650000000     0.353800000000   
C      0.204833333333     0.387700000000     0.370000000000   
C      0.115866666667     0.417700000000     0.298750000000   
C      0.116100000000     0.423800000000     0.259550000000   
C      0.147466666667     0.419800000000     0.240000000000   
C      0.132800000000     0.428600000000     0.203450000000   
C      0.214266666667     0.374750000000     0.405400000000   
C      0.325733333333     0.206600000000     0.470650000000   
C      0.089900000000     0.438650000000     0.196700000000   
C      0.007600000000     0.456600000000     0.029350000000   
C      0.299800000000     0.169800000000     0.461400000000   
C      0.172300000000     0.144650000000     0.146200000000   
C      0.072600000000     0.116400000000     0.077550000000   
C      0.217233333333     0.173800000000     0.240450000000   
C      0.185866666667     0.169800000000     0.260000000000   
C      0.206500000000     0.139100000000     0.126600000000   
C      0.200533333333     0.178600000000     0.296550000000   
C      0.217466666667     0.167700000000     0.201250000000   
C      0.196666666667     0.126750000000     0.091650000000   
C      0.233233333333     0.119700000000     0.071300000000   
C      0.152800000000     0.118900000000     0.075250000000   
C      0.243433333333     0.188650000000     0.303300000000   
C      0.273633333333     0.196250000000     0.337200000000   
C      0.280700000000     0.195800000000     0.401650000000   
C      0.278533333333     0.165050000000     0.426950000000   
C      0.119066666667     0.124750000000     0.094600000000   
C      0.128500000000     0.137700000000     0.130000000000   
H      0.146533333333     0.109900000000     0.051850000000   
H      0.186800000000     0.359900000000     0.448150000000   
H      0.227666666667     0.391650000000     0.357250000000   
H      0.235700000000     0.143800000000     0.137150000000   
H      0.097633333333     0.393800000000     0.362850000000   
H      0.262466666667     0.141050000000     0.420400000000   
H      0.105666666667     0.141650000000     0.142750000000   
H      0.176700000000     0.406350000000     0.308200000000   
H      0.105033333333     0.433250000000     0.135200000000   
H      0.157066666667     0.161950000000     0.250700000000   
H      0.070866666667     0.391050000000     0.079600000000   
H      0.182500000000     0.177550000000     0.313650000000   
H      0.228300000000     0.183250000000     0.364800000000   
H      0.325633333333     0.460250000000     0.006400000000   
H      0.156633333333     0.156350000000     0.191800000000   
H      0.150833333333     0.427550000000     0.186350000000   
H      0.304800000000     0.253200000000     0.393850000000   
H      0.007700000000     0.210250000000     0.493600000000   
H      0.028533333333     0.003200000000     0.106150000000   
H      0.176266666667     0.411950000000     0.249300000000   
N      0.153966666667     0.406400000000     0.318500000000   
N      0.255600000000     0.190400000000     0.367000000000   
N      0.077733333333     0.440400000000     0.133000000000   
N      0.179366666667     0.156400000000     0.181500000000   
O      0.311333333333     0.207050000000     0.337700000000   
O      0.061066666667     0.378200000000     0.412960000000   
O      0.291100000000     0.380050000000     0.405095000000   
O      0.269366666667     0.348850000000     0.451510000000   
O      0.059333333333     0.357400000000     0.020675000000   
O      0.290500000000     0.026850000000     0.014065000000   
O      0.316033333333     0.052950000000     0.067915000000   
O      0.110033333333     0.356350000000     0.460185000000   
O      0.019533333333     0.397250000000     0.479570000000   
O      0.022000000000     0.457050000000     0.162300000000   
O      0.081466666667     0.422000000000     0.308650000000   
O      0.251866666667     0.172000000000     0.191350000000   
O      0.017300000000     0.302950000000     0.432085000000   
O      0.042833333333     0.276850000000     0.485935000000   
O      0.274000000000     0.107400000000     0.479325000000   
O      0.313800000000     0.147250000000     0.020430000000   
O      0.063966666667     0.098850000000     0.048490000000   
O      0.042233333333     0.130050000000     0.094905000000   
O      0.272266666667     0.128200000000     0.087040000000   
O      0.223300000000     0.106350000000     0.039815000000   
S      0.265723333333     0.188130000000     0.266060000000   
S      0.067610000000     0.438130000000     0.233940000000   
Zn     0.011710000000     0.363305000000     0.437275000000   
Zn     0.092903333333     0.316235000000     0.494645000000   
Zn     0.321623333333     0.113305000000     0.062725000000   
Zn     0.240430000000     0.066235000000     0.005355000000   
C      0.029033333333     0.482200000000     0.589650000000   
C      0.304300000000     0.232200000000     0.910350000000   
C      0.019766666667     0.274700000000     0.955100000000   
C      0.295600000000     0.139050000000     0.988950000000   
C      0.033533333333     0.419800000000     0.538600000000   
C      0.005733333333     0.485700000000     0.554350000000   
C      0.054800000000     0.415050000000     0.573050000000   
C      0.052633333333     0.445800000000     0.598350000000   
C      0.059700000000     0.446250000000     0.662800000000   
C      0.037733333333     0.389050000000     0.511050000000   
C      0.313566666667     0.024700000000     0.544900000000   
C      0.327600000000     0.235700000000     0.945650000000   
C      0.260733333333     0.366400000000     0.922450000000   
C      0.180533333333     0.368900000000     0.924750000000   
C      0.136666666667     0.376750000000     0.908350000000   
C      0.100100000000     0.369700000000     0.928700000000   
C      0.126833333333     0.389100000000     0.873400000000   
C      0.161033333333     0.394650000000     0.853800000000   
C      0.204833333333     0.387700000000     0.870000000000   
C      0.115866666667     0.417700000000     0.798750000000   
C      0.116100000000     0.423800000000     0.759550000000   
C      0.147466666667     0.419800000000     0.740000000000   
C      0.132800000000     0.428600000000     0.703450000000   
C      0.214266666667     0.374750000000     0.905400000000   
C      0.325733333333     0.206600000000     0.970650000000   
C      0.089900000000     0.438650000000     0.696700000000   
C      0.007600000000     0.456600000000     0.529350000000   
C      0.299800000000     0.169800000000     0.961400000000   
C      0.172300000000     0.144650000000     0.646200000000   
C      0.072600000000     0.116400000000     0.577550000000   
C      0.217233333333     0.173800000000     0.740450000000   
C      0.185866666667     0.169800000000     0.760000000000   
C      0.206500000000     0.139100000000     0.626600000000   
C      0.200533333333     0.178600000000     0.796550000000   
C      0.217466666667     0.167700000000     0.701250000000   
C      0.196666666667     0.126750000000     0.591650000000   
C      0.233233333333     0.119700000000     0.571300000000   
C      0.152800000000     0.118900000000     0.575250000000   
C      0.243433333333     0.188650000000     0.803300000000   
C      0.273633333333     0.196250000000     0.837200000000   
C      0.280700000000     0.195800000000     0.901650000000   
C      0.278533333333     0.165050000000     0.926950000000   
C      0.119066666667     0.124750000000     0.594600000000   
C      0.128500000000     0.137700000000     0.630000000000   
H      0.146533333333     0.109900000000     0.551850000000   
H      0.186800000000     0.359900000000     0.948150000000   
H      0.227666666667     0.391650000000     0.857250000000   
H      0.235700000000     0.143800000000     0.637150000000   
H      0.097633333333     0.393800000000     0.862850000000   
H      0.262466666667     0.141050000000     0.920400000000   
H      0.105666666667     0.141650000000     0.642750000000   
H      0.176700000000     0.406350000000     0.808200000000   
H      0.105033333333     0.433250000000     0.635200000000   
H      0.157066666667     0.161950000000     0.750700000000   
H      0.070866666667     0.391050000000     0.579600000000   
H      0.182500000000     0.177550000000     0.813650000000   
H      0.228300000000     0.183250000000     0.864800000000   
H      0.325633333333     0.460250000000     0.506400000000   
H      0.156633333333     0.156350000000     0.691800000000   
H      0.150833333333     0.427550000000     0.686350000000   
H      0.304800000000     0.253200000000     0.893850000000   
H      0.007700000000     0.210250000000     0.993600000000   
H      0.028533333333     0.003200000000     0.606150000000   
H      0.176266666667     0.411950000000     0.749300000000   
N      0.153966666667     0.406400000000     0.818500000000   
N      0.255600000000     0.190400000000     0.867000000000   
N      0.077733333333     0.440400000000     0.633000000000   
N      0.179366666667     0.156400000000     0.681500000000   
O      0.311333333333     0.207050000000     0.837700000000   
O      0.061066666667     0.378200000000     0.912960000000   
O      0.291100000000     0.380050000000     0.905095000000   
O      0.269366666667     0.348850000000     0.951510000000   
O      0.059333333333     0.357400000000     0.520675000000   
O      0.290500000000     0.026850000000     0.514065000000   
O      0.316033333333     0.052950000000     0.567915000000   
O      0.110033333333     0.356350000000     0.960185000000   
O      0.019533333333     0.397250000000     0.979570000000   
O      0.022000000000     0.457050000000     0.662300000000   
O      0.081466666667     0.422000000000     0.808650000000   
O      0.251866666667     0.172000000000     0.691350000000   
O      0.017300000000     0.302950000000     0.932085000000   
O      0.042833333333     0.276850000000     0.985935000000   
O      0.274000000000     0.107400000000     0.979325000000   
O      0.313800000000     0.147250000000     0.520430000000   
O      0.063966666667     0.098850000000     0.548490000000   
O      0.042233333333     0.130050000000     0.594905000000   
O      0.272266666667     0.128200000000     0.587040000000   
O      0.223300000000     0.106350000000     0.539815000000   
S      0.265723333333     0.188130000000     0.766060000000   
S      0.067610000000     0.438130000000     0.733940000000   
Zn     0.011710000000     0.363305000000     0.937275000000   
Zn     0.092903333333     0.316235000000     0.994645000000   
Zn     0.321623333333     0.113305000000     0.562725000000   
Zn     0.240430000000     0.066235000000     0.505355000000   
C      0.029033333333     0.982200000000     0.089650000000   
C      0.304300000000     0.732200000000     0.410350000000   
C      0.019766666667     0.774700000000     0.455100000000   
C      0.295600000000     0.639050000000     0.488950000000   
C      0.033533333333     0.919800000000     0.038600000000   
C      0.005733333333     0.985700000000     0.054350000000   
C      0.054800000000     0.915050000000     0.073050000000   
C      0.052633333333     0.945800000000     0.098350000000   
C      0.059700000000     0.946250000000     0.162800000000   
C      0.037733333333     0.889050000000     0.011050000000   
C      0.313566666667     0.524700000000     0.044900000000   
C      0.327600000000     0.735700000000     0.445650000000   
C      0.260733333333     0.866400000000     0.422450000000   
C      0.180533333333     0.868900000000     0.424750000000   
C      0.136666666667     0.876750000000     0.408350000000   
C      0.100100000000     0.869700000000     0.428700000000   
C      0.126833333333     0.889100000000     0.373400000000   
C      0.161033333333     0.894650000000     0.353800000000   
C      0.204833333333     0.887700000000     0.370000000000   
C      0.115866666667     0.917700000000     0.298750000000   
C      0.116100000000     0.923800000000     0.259550000000   
C      0.147466666667     0.919800000000     0.240000000000   
C      0.132800000000     0.928600000000     0.203450000000   
C      0.214266666667     0.874750000000     0.405400000000   
C      0.325733333333     0.706600000000     0.470650000000   
C      0.089900000000     0.938650000000     0.196700000000   
C      0.007600000000     0.956600000000     0.029350000000   
C      0.299800000000     0.669800000000     0.461400000000   
C      0.172300000000     0.644650000000     0.146200000000   
C      0.072600000000     0.616400000000     0.077550000000   
C      0.217233333333     0.673800000000     0.240450000000   
C      0.185866666667     0.669800000000     0.260000000000   
C      0.206500000000     0.639100000000     0.126600000000   
C      0.200533333333     0.678600000000     0.296550000000   
C      0.217466666667     0.667700000000     0.201250000000   
C      0.196666666667     0.626750000000     0.091650000000   
C      0.233233333333     0.619700000000     0.071300000000   
C      0.152800000000     0.618900000000     0.075250000000   
C      0.243433333333     0.688650000000     0.303300000000   
C      0.273633333333     0.696250000000     0.337200000000   
C      0.280700000000     0.695800000000     0.401650000000   
C      0.278533333333     0.665050000000     0.426950000000   
C      0.119066666667     0.624750000000     0.094600000000   
C      0.128500000000     0.637700000000     0.130000000000   
H      0.146533333333     0.609900000000     0.051850000000   
H      0.186800000000     0.859900000000     0.448150000000   
H      0.227666666667     0.891650000000     0.357250000000   
H      0.235700000000     0.643800000000     0.137150000000   
H      0.097633333333     0.893800000000     0.362850000000   
H      0.262466666667     0.641050000000     0.420400000000   
H      0.105666666667     0.641650000000     0.142750000000   
H      0.176700000000     0.906350000000     0.308200000000   
H      0.105033333333     0.933250000000     0.135200000000   
H      0.157066666667     0.661950000000     0.250700000000   
H      0.070866666667     0.891050000000     0.079600000000   
H      0.182500000000     0.677550000000     0.313650000000   
H      0.228300000000     0.683250000000     0.364800000000   
H      0.325633333333     0.960250000000     0.006400000000   
H      0.156633333333     0.656350000000     0.191800000000   
H      0.150833333333     0.927550000000     0.186350000000   
H      0.304800000000     0.753200000000     0.393850000000   
H      0.007700000000     0.710250000000     0.493600000000   
H      0.028533333333     0.503200000000     0.106150000000   
H      0.176266666667     0.911950000000     0.249300000000   
N      0.153966666667     0.906400000000     0.318500000000   
N      0.255600000000     0.690400000000     0.367000000000   
N      0.077733333333     0.940400000000     0.133000000000   
N      0.179366666667     0.656400000000     0.181500000000   
O      0.311333333333     0.707050000000     0.337700000000   
O      0.061066666667     0.878200000000     0.412960000000   
O      0.291100000000     0.880050000000     0.405095000000   
O      0.269366666667     0.848850000000     0.451510000000   
O      0.059333333333     0.857400000000     0.020675000000   
O      0.290500000000     0.526850000000     0.014065000000   
O      0.316033333333     0.552950000000     0.067915000000   
O      0.110033333333     0.856350000000     0.460185000000   
O      0.019533333333     0.897250000000     0.479570000000   
O      0.022000000000     0.957050000000     0.162300000000   
O      0.081466666667     0.922000000000     0.308650000000   
O      0.251866666667     0.672000000000     0.191350000000   
O      0.017300000000     0.802950000000     0.432085000000   
O      0.042833333333     0.776850000000     0.485935000000   
O      0.274000000000     0.607400000000     0.479325000000   
O      0.313800000000     0.647250000000     0.020430000000   
O      0.063966666667     0.598850000000     0.048490000000   
O      0.042233333333     0.630050000000     0.094905000000   
O      0.272266666667     0.628200000000     0.087040000000   
O      0.223300000000     0.606350000000     0.039815000000   
S      0.265723333333     0.688130000000     0.266060000000   
S      0.067610000000     0.938130000000     0.233940000000   
Zn     0.011710000000     0.863305000000     0.437275000000   
Zn     0.092903333333     0.816235000000     0.494645000000   
Zn     0.321623333333     0.613305000000     0.062725000000   
Zn     0.240430000000     0.566235000000     0.005355000000   
C      0.029033333333     0.982200000000     0.589650000000   
C      0.304300000000     0.732200000000     0.910350000000   
C      0.019766666667     0.774700000000     0.955100000000   
C      0.295600000000     0.639050000000     0.988950000000   
C      0.033533333333     0.919800000000     0.538600000000   
C      0.005733333333     0.985700000000     0.554350000000   
C      0.054800000000     0.915050000000     0.573050000000   
C      0.052633333333     0.945800000000     0.598350000000   
C      0.059700000000     0.946250000000     0.662800000000   
C      0.037733333333     0.889050000000     0.511050000000   
C      0.313566666667     0.524700000000     0.544900000000   
C      0.327600000000     0.735700000000     0.945650000000   
C      0.260733333333     0.866400000000     0.922450000000   
C      0.180533333333     0.868900000000     0.924750000000   
C      0.136666666667     0.876750000000     0.908350000000   
C      0.100100000000     0.869700000000     0.928700000000   
C      0.126833333333     0.889100000000     0.873400000000   
C      0.161033333333     0.894650000000     0.853800000000   
C      0.204833333333     0.887700000000     0.870000000000   
C      0.115866666667     0.917700000000     0.798750000000   
C      0.116100000000     0.923800000000     0.759550000000   
C      0.147466666667     0.919800000000     0.740000000000   
C      0.132800000000     0.928600000000     0.703450000000   
C      0.214266666667     0.874750000000     0.905400000000   
C      0.325733333333     0.706600000000     0.970650000000   
C      0.089900000000     0.938650000000     0.696700000000   
C      0.007600000000     0.956600000000     0.529350000000   
C      0.299800000000     0.669800000000     0.961400000000   
C      0.172300000000     0.644650000000     0.646200000000   
C      0.072600000000     0.616400000000     0.577550000000   
C      0.217233333333     0.673800000000     0.740450000000   
C      0.185866666667     0.669800000000     0.760000000000   
C      0.206500000000     0.639100000000     0.626600000000   
C      0.200533333333     0.678600000000     0.796550000000   
C      0.217466666667     0.667700000000     0.701250000000   
C      0.196666666667     0.626750000000     0.591650000000   
C      0.233233333333     0.619700000000     0.571300000000   
C      0.152800000000     0.618900000000     0.575250000000   
C      0.243433333333     0.688650000000     0.803300000000   
C      0.273633333333     0.696250000000     0.837200000000   
C      0.280700000000     0.695800000000     0.901650000000   
C      0.278533333333     0.665050000000     0.926950000000   
C      0.119066666667     0.624750000000     0.594600000000   
C      0.128500000000     0.637700000000     0.630000000000   
H      0.146533333333     0.609900000000     0.551850000000   
H      0.186800000000     0.859900000000     0.948150000000   
H      0.227666666667     0.891650000000     0.857250000000   
H      0.235700000000     0.643800000000     0.637150000000   
H      0.097633333333     0.893800000000     0.862850000000   
H      0.262466666667     0.641050000000     0.920400000000   
H      0.105666666667     0.641650000000     0.642750000000   
H      0.176700000000     0.906350000000     0.808200000000   
H      0.105033333333     0.933250000000     0.635200000000   
H      0.157066666667     0.661950000000     0.750700000000   
H      0.070866666667     0.891050000000     0.579600000000   
H      0.182500000000     0.677550000000     0.813650000000   
H      0.228300000000     0.683250000000     0.864800000000   
H      0.325633333333     0.960250000000     0.506400000000   
H      0.156633333333     0.656350000000     0.691800000000   
H      0.150833333333     0.927550000000     0.686350000000   
H      0.304800000000     0.753200000000     0.893850000000   
H      0.007700000000     0.710250000000     0.993600000000   
H      0.028533333333     0.503200000000     0.606150000000   
H      0.176266666667     0.911950000000     0.749300000000   
N      0.153966666667     0.906400000000     0.818500000000   
N      0.255600000000     0.690400000000     0.867000000000   
N      0.077733333333     0.940400000000     0.633000000000   
N      0.179366666667     0.656400000000     0.681500000000   
O      0.311333333333     0.707050000000     0.837700000000   
O      0.061066666667     0.878200000000     0.912960000000   
O      0.291100000000     0.880050000000     0.905095000000   
O      0.269366666667     0.848850000000     0.951510000000   
O      0.059333333333     0.857400000000     0.520675000000   
O      0.290500000000     0.526850000000     0.514065000000   
O      0.316033333333     0.552950000000     0.567915000000   
O      0.110033333333     0.856350000000     0.960185000000   
O      0.019533333333     0.897250000000     0.979570000000   
O      0.022000000000     0.957050000000     0.662300000000   
O      0.081466666667     0.922000000000     0.808650000000   
O      0.251866666667     0.672000000000     0.691350000000   
O      0.017300000000     0.802950000000     0.932085000000   
O      0.042833333333     0.776850000000     0.985935000000   
O      0.274000000000     0.607400000000     0.979325000000   
O      0.313800000000     0.647250000000     0.520430000000   
O      0.063966666667     0.598850000000     0.548490000000   
O      0.042233333333     0.630050000000     0.594905000000   
O      0.272266666667     0.628200000000     0.587040000000   
O      0.223300000000     0.606350000000     0.539815000000   
S      0.265723333333     0.688130000000     0.766060000000   
S      0.067610000000     0.938130000000     0.733940000000   
Zn     0.011710000000     0.863305000000     0.937275000000   
Zn     0.092903333333     0.816235000000     0.994645000000   
Zn     0.321623333333     0.613305000000     0.562725000000   
Zn     0.240430000000     0.566235000000     0.505355000000   
C      0.362366666667     0.482200000000     0.089650000000   
C      0.637633333333     0.232200000000     0.410350000000   
C      0.353100000000     0.274700000000     0.455100000000   
C      0.628933333333     0.139050000000     0.488950000000   
C      0.366866666667     0.419800000000     0.038600000000   
C      0.339066666667     0.485700000000     0.054350000000   
C      0.388133333333     0.415050000000     0.073050000000   
C      0.385966666667     0.445800000000     0.098350000000   
C      0.393033333333     0.446250000000     0.162800000000   
C      0.371066666667     0.389050000000     0.011050000000   
C      0.646900000000     0.024700000000     0.044900000000   
C      0.660933333333     0.235700000000     0.445650000000   
C      0.594066666667     0.366400000000     0.422450000000   
C      0.513866666667     0.368900000000     0.424750000000   
C      0.470000000000     0.376750000000     0.408350000000   
C      0.433433333333     0.369700000000     0.428700000000   
C      0.460166666667     0.389100000000     0.373400000000   
C      0.494366666667     0.394650000000     0.353800000000   
C      0.538166666667     0.387700000000     0.370000000000   
C      0.449200000000     0.417700000000     0.298750000000   
C      0.449433333333     0.423800000000     0.259550000000   
C      0.480800000000     0.419800000000     0.240000000000   
C      0.466133333333     0.428600000000     0.203450000000   
C      0.547600000000     0.374750000000     0.405400000000   
C      0.659066666667     0.206600000000     0.470650000000   
C      0.423233333333     0.438650000000     0.196700000000   
C      0.340933333333     0.456600000000     0.029350000000   
C      0.633133333333     0.169800000000     0.461400000000   
C      0.505633333333     0.144650000000     0.146200000000   
C      0.405933333333     0.116400000000     0.077550000000   
C      0.550566666667     0.173800000000     0.240450000000   
C      0.519200000000     0.169800000000     0.260000000000   
C      0.539833333333     0.139100000000     0.126600000000   
C      0.533866666667     0.178600000000     0.296550000000   
C      0.550800000000     0.167700000000     0.201250000000   
C      0.530000000000     0.126750000000     0.091650000000   
C      0.566566666667     0.119700000000     0.071300000000   
C      0.486133333333     0.118900000000     0.075250000000   
C      0.576766666667     0.188650000000     0.303300000000   
C      0.606966666667     0.196250000000     0.337200000000   
C      0.614033333333     0.195800000000     0.401650000000   
C      0.611866666667     0.165050000000     0.426950000000   
C      0.452400000000     0.124750000000     0.094600000000   
C      0.461833333333     0.137700000000     0.130000000000   
H      0.479866666667     0.109900000000     0.051850000000   
H      0.520133333333     0.359900000000     0.448150000000   
H      0.561000000000     0.391650000000     0.357250000000   
H      0.569033333333     0.143800000000     0.137150000000   
H      0.430966666667     0.393800000000     0.362850000000   
H      0.595800000000     0.141050000000     0.420400000000   
H      0.439000000000     0.141650000000     0.142750000000   
H      0.510033333333     0.406350000000     0.308200000000   
H      0.438366666667     0.433250000000     0.135200000000   
H      0.490400000000     0.161950000000     0.250700000000   
H      0.404200000000     0.391050000000     0.079600000000   
H      0.515833333333     0.177550000000     0.313650000000   
H      0.561633333333     0.183250000000     0.364800000000   
H      0.658966666667     0.460250000000     0.006400000000   
H      0.489966666667     0.156350000000     0.191800000000   
H      0.484166666667     0.427550000000     0.186350000000   
H      0.638133333333     0.253200000000     0.393850000000   
H      0.341033333333     0.210250000000     0.493600000000   
H      0.361866666667     0.003200000000     0.106150000000   
H      0.509600000000     0.411950000000     0.249300000000   
N      0.487300000000     0.406400000000     0.318500000000   
N      0.588933333333     0.190400000000     0.367000000000   
N      0.411066666667     0.440400000000     0.133000000000   
N      0.512700000000     0.156400000000     0.181500000000   
O      0.644666666667     0.207050000000     0.337700000000   
O      0.394400000000     0.378200000000     0.412960000000   
O      0.624433333333     0.380050000000     0.405095000000   
O      0.602700000000     0.348850000000     0.451510000000   
O      0.392666666667     0.357400000000     0.020675000000   
O      0.623833333333     0.026850000000     0.014065000000   
O      0.649366666667     0.052950000000     0.067915000000   
O      0.443366666667     0.356350000000     0.460185000000   
O      0.352866666667     0.397250000000     0.479570000000   
O      0.355333333333     0.457050000000     0.162300000000   
O      0.414800000000     0.422000000000     0.308650000000   
O      0.585200000000     0.172000000000     0.191350000000   
O      0.350633333333     0.302950000000     0.432085000000   
O      0.376166666667     0.276850000000     0.485935000000   
O      0.607333333333     0.107400000000     0.479325000000   
O      0.647133333333     0.147250000000     0.020430000000   
O      0.397300000000     0.098850000000     0.048490000000   
O      0.375566666667     0.130050000000     0.094905000000   
O      0.605600000000     0.128200000000     0.087040000000   
O      0.556633333333     0.106350000000     0.039815000000   
S      0.599056666667     0.188130000000     0.266060000000   
S      0.400943333333     0.438130000000     0.233940000000   
Zn     0.345043333333     0.363305000000     0.437275000000   
Zn     0.426236666667     0.316235000000     0.494645000000   
Zn     0.654956666667     0.113305000000     0.062725000000   
Zn     0.573763333333     0.066235000000     0.005355000000   
C      0.362366666667     0.482200000000     0.589650000000   
C      0.637633333333     0.232200000000     0.910350000000   