%BLOCK LATTICE_CART
ang    # angstrom units
  8.674200000000     0.000000000000     0.000000000000   
  0.707523137312     9.943460009985     0.000000000000   
  4.078767956176     2.797880660007     10.664851230656  
%ENDBLOCK LATTICE_CART

%BLOCK POSITIONS_FRAC
C      0.179375000000     0.203800000000     0.049533333333   
C      0.047425000000     0.132233333333     0.065566666667   
C      0.038550000000     0.128300000000     0.027666666667   
C      0.078000000000     0.129666666667     0.323866666667   
C      0.070625000000     0.129533333333     0.283800000000   
C      0.108775000000     0.137533333333     0.245600000000   
C      0.008250000000     0.007366666667     0.142700000000   
C      0.052550000000     0.327700000000     0.124233333333   
C      0.059675000000     0.276400000000     0.135700000000   
C      0.238925000000     0.194766666667     0.230833333333   
C      0.202575000000     0.201100000000     0.267766666667   
C      0.211450000000     0.205033333333     0.305666666667   
C      0.172000000000     0.203666666667     0.009466666667   
C      0.197450000000     0.005633333333     0.209100000000   
C      0.141225000000     0.195800000000     0.087733333333   
C      0.011075000000     0.138566666667     0.102500000000   
C      0.190325000000     0.056933333333     0.197633333333   
C      0.241750000000     0.325966666667     0.190633333333   
H      0.094225000000     0.103066666667     0.330833333333   
H      0.191825000000     0.233400000000     0.045833333333   
H      0.198850000000     0.179900000000     0.054233333333   
H      0.156125000000     0.176000000000     0.014366666667   
H      0.155775000000     0.230266666667     0.002500000000   
H      0.228725000000     0.179733333333     0.313100000000   
H      0.226350000000     0.233866666667     0.299066666667   
H      0.183625000000     0.175100000000     0.276233333333   
H      0.188600000000     0.228833333333     0.258533333333   
H      0.069600000000     0.010133333333     0.133633333333   
H      0.093875000000     0.157333333333     0.318966666667   
H      0.061200000000     0.005266666667     0.094033333333   
H      0.241300000000     0.326266666667     0.132200000000   
H      0.058175000000     0.099933333333     0.287500000000   
H      0.008700000000     0.007066666667     0.201133333333   
H      0.244000000000     0.292666666667     0.199833333333   
H      0.188800000000     0.328066666667     0.239300000000   
H      0.180400000000     0.323200000000     0.199700000000   
H      0.061400000000     0.104500000000     0.074800000000   
H      0.051150000000     0.153433333333     0.279100000000   
H      0.023650000000     0.099466666667     0.034266666667   
H      0.021275000000     0.153600000000     0.020233333333   
H      0.006000000000     0.040666666667     0.133500000000   
H      0.066375000000     0.158233333333     0.057100000000   
Nd     0.063612500000     0.174140000000     0.162696666667   
Nd     0.186387500000     0.159193333333     0.170636666667   
O      0.106150000000     0.202433333333     0.084533333333   
O      0.144300000000     0.181433333333     0.124000000000   
O      0.024750000000     0.205466666667     0.227066666667   
O      0.233025000000     0.178400000000     0.203500000000   
O      0.034325000000     0.249033333333     0.133866666667   
O      0.089400000000     0.260533333333     0.147000000000   
O      0.143850000000     0.130900000000     0.248800000000   
O      0.105700000000     0.151900000000     0.209333333333   
O      0.225250000000     0.127866666667     0.106266666667   
O      0.016975000000     0.154933333333     0.129833333333   
O      0.215675000000     0.084300000000     0.199466666667   
O      0.160600000000     0.072800000000     0.186333333333   
C      0.179375000000     0.203800000000     0.382866666667   
C      0.047425000000     0.132233333333     0.398900000000   
C      0.038550000000     0.128300000000     0.361000000000   
C      0.078000000000     0.129666666667     0.657200000000   
C      0.070625000000     0.129533333333     0.617133333333   
C      0.108775000000     0.137533333333     0.578933333333   
C      0.008250000000     0.007366666667     0.476033333333   
C      0.052550000000     0.327700000000     0.457566666667   
C      0.059675000000     0.276400000000     0.469033333333   
C      0.238925000000     0.194766666667     0.564166666667   
C      0.202575000000     0.201100000000     0.601100000000   
C      0.211450000000     0.205033333333     0.639000000000   
C      0.172000000000     0.203666666667     0.342800000000   
C      0.197450000000     0.005633333333     0.542433333333   
C      0.141225000000     0.195800000000     0.421066666667   
C      0.011075000000     0.138566666667     0.435833333333   
C      0.190325000000     0.056933333333     0.530966666667   
C      0.241750000000     0.325966666667     0.523966666667   
H      0.094225000000     0.103066666667     0.664166666667   
H      0.191825000000     0.233400000000     0.379166666667   
H      0.198850000000     0.179900000000     0.387566666667   
H      0.156125000000     0.176000000000     0.347700000000   
H      0.155775000000     0.230266666667     0.335833333333   
H      0.228725000000     0.179733333333     0.646433333333   
H      0.226350000000     0.233866666667     0.632400000000   
H      0.183625000000     0.175100000000     0.609566666667   
H      0.188600000000     0.228833333333     0.591866666667   
H      0.069600000000     0.010133333333     0.466966666667   
H      0.093875000000     0.157333333333     0.652300000000   
H      0.061200000000     0.005266666667     0.427366666667   
H      0.241300000000     0.326266666667     0.465533333333   
H      0.058175000000     0.099933333333     0.620833333333   
H      0.008700000000     0.007066666667     0.534466666667   
H      0.244000000000     0.292666666667     0.533166666667   
H      0.188800000000     0.328066666667     0.572633333333   
H      0.180400000000     0.323200000000     0.533033333333   
H      0.061400000000     0.104500000000     0.408133333333   
H      0.051150000000     0.153433333333     0.612433333333   
H      0.023650000000     0.099466666667     0.367600000000   
H      0.021275000000     0.153600000000     0.353566666667   
H      0.006000000000     0.040666666667     0.466833333333   
H      0.066375000000     0.158233333333     0.390433333333   
Nd     0.063612500000     0.174140000000     0.496030000000   
Nd     0.186387500000     0.159193333333     0.503970000000   
O      0.106150000000     0.202433333333     0.417866666667   
O      0.144300000000     0.181433333333     0.457333333333   
O      0.024750000000     0.205466666667     0.560400000000   
O      0.233025000000     0.178400000000     0.536833333333   
O      0.034325000000     0.249033333333     0.467200000000   
O      0.089400000000     0.260533333333     0.480333333333   
O      0.143850000000     0.130900000000     0.582133333333   
O      0.105700000000     0.151900000000     0.542666666667   
O      0.225250000000     0.127866666667     0.439600000000   
O      0.016975000000     0.154933333333     0.463166666667   
O      0.215675000000     0.084300000000     0.532800000000   
O      0.160600000000     0.072800000000     0.519666666667   
C      0.179375000000     0.203800000000     0.716200000000   
C      0.047425000000     0.132233333333     0.732233333333   
C      0.038550000000     0.128300000000     0.694333333333   
C      0.078000000000     0.129666666667     0.990533333333   
C      0.070625000000     0.129533333333     0.950466666667   
C      0.108775000000     0.137533333333     0.912266666667   
C      0.008250000000     0.007366666667     0.809366666667   
C      0.052550000000     0.327700000000     0.790900000000   
C      0.059675000000     0.276400000000     0.802366666667   
C      0.238925000000     0.194766666667     0.897500000000   
C      0.202575000000     0.201100000000     0.934433333333   
C      0.211450000000     0.205033333333     0.972333333333   
C      0.172000000000     0.203666666667     0.676133333333   
C      0.197450000000     0.005633333333     0.875766666667   
C      0.141225000000     0.195800000000     0.754400000000   
C      0.011075000000     0.138566666667     0.769166666667   
C      0.190325000000     0.056933333333     0.864300000000   
C      0.241750000000     0.325966666667     0.857300000000   
H      0.094225000000     0.103066666667     0.997500000000   
H      0.191825000000     0.233400000000     0.712500000000   
H      0.198850000000     0.179900000000     0.720900000000   
H      0.156125000000     0.176000000000     0.681033333333   
H      0.155775000000     0.230266666667     0.669166666667   
H      0.228725000000     0.179733333333     0.979766666667   
H      0.226350000000     0.233866666667     0.965733333333   
H      0.183625000000     0.175100000000     0.942900000000   
H      0.188600000000     0.228833333333     0.925200000000   
H      0.069600000000     0.010133333333     0.800300000000   
H      0.093875000000     0.157333333333     0.985633333333   
H      0.061200000000     0.005266666667     0.760700000000   
H      0.241300000000     0.326266666667     0.798866666667   
H      0.058175000000     0.099933333333     0.954166666667   
H      0.008700000000     0.007066666667     0.867800000000   
H      0.244000000000     0.292666666667     0.866500000000   
H      0.188800000000     0.328066666667     0.905966666667   
H      0.180400000000     0.323200000000     0.866366666667   
H      0.061400000000     0.104500000000     0.741466666667   
H      0.051150000000     0.153433333333     0.945766666667   
H      0.023650000000     0.099466666667     0.700933333333   
H      0.021275000000     0.153600000000     0.686900000000   
H      0.006000000000     0.040666666667     0.800166666667   
H      0.066375000000     0.158233333333     0.723766666667   
Nd     0.063612500000     0.174140000000     0.829363333333   
Nd     0.186387500000     0.159193333333     0.837303333333   
O      0.106150000000     0.202433333333     0.751200000000   
O      0.144300000000     0.181433333333     0.790666666667   
O      0.024750000000     0.205466666667     0.893733333333   
O      0.233025000000     0.178400000000     0.870166666667   
O      0.034325000000     0.249033333333     0.800533333333   
O      0.089400000000     0.260533333333     0.813666666667   
O      0.143850000000     0.130900000000     0.915466666667   
O      0.105700000000     0.151900000000     0.876000000000   
O      0.225250000000     0.127866666667     0.772933333333   
O      0.016975000000     0.154933333333     0.796500000000   
O      0.215675000000     0.084300000000     0.866133333333   
O      0.160600000000     0.072800000000     0.853000000000   
C      0.179375000000     0.537133333333     0.049533333333   
C      0.047425000000     0.465566666667     0.065566666667   
C      0.038550000000     0.461633333333     0.027666666667   
C      0.078000000000     0.463000000000     0.323866666667   
C      0.070625000000     0.462866666667     0.283800000000   
C      0.108775000000     0.470866666667     0.245600000000   
C      0.008250000000     0.340700000000     0.142700000000   
C      0.052550000000     0.661033333333     0.124233333333   
C      0.059675000000     0.609733333333     0.135700000000   
C      0.238925000000     0.528100000000     0.230833333333   
C      0.202575000000     0.534433333333     0.267766666667   
C      0.211450000000     0.538366666667     0.305666666667   
C      0.172000000000     0.537000000000     0.009466666667   
C      0.197450000000     0.338966666667     0.209100000000   
C      0.141225000000     0.529133333333     0.087733333333   
C      0.011075000000     0.471900000000     0.102500000000   
C      0.190325000000     0.390266666667     0.197633333333   
C      0.241750000000     0.659300000000     0.190633333333   
H      0.094225000000     0.436400000000     0.330833333333   
H      0.191825000000     0.566733333333     0.045833333333   
H      0.198850000000     0.513233333333     0.054233333333   
H      0.156125000000     0.509333333333     0.014366666667   
H      0.155775000000     0.563600000000     0.002500000000   
H      0.228725000000     0.513066666667     0.313100000000   
H      0.226350000000     0.567200000000     0.299066666667   
H      0.183625000000     0.508433333333     0.276233333333   
H      0.188600000000     0.562166666667     0.258533333333   
H      0.069600000000     0.343466666667     0.133633333333   
H      0.093875000000     0.490666666667     0.318966666667   
H      0.061200000000     0.338600000000     0.094033333333   
H      0.241300000000     0.659600000000     0.132200000000   
H      0.058175000000     0.433266666667     0.287500000000   
H      0.008700000000     0.340400000000     0.201133333333   
H      0.244000000000     0.626000000000     0.199833333333   
H      0.188800000000     0.661400000000     0.239300000000   
H      0.180400000000     0.656533333333     0.199700000000   
H      0.061400000000     0.437833333333     0.074800000000   
H      0.051150000000     0.486766666667     0.279100000000   
H      0.023650000000     0.432800000000     0.034266666667   
H      0.021275000000     0.486933333333     0.020233333333   
H      0.006000000000     0.374000000000     0.133500000000   
H      0.066375000000     0.491566666667     0.057100000000   
Nd     0.063612500000     0.507473333333     0.162696666667   
Nd     0.186387500000     0.492526666667     0.170636666667   
O      0.106150000000     0.535766666667     0.084533333333   
O      0.144300000000     0.514766666667     0.124000000000   
O      0.024750000000     0.538800000000     0.227066666667   
O      0.233025000000     0.511733333333     0.203500000000   
O      0.034325000000     0.582366666667     0.133866666667   
O      0.089400000000     0.593866666667     0.147000000000   
O      0.143850000000     0.464233333333     0.248800000000   
O      0.105700000000     0.485233333333     0.209333333333   
O      0.225250000000     0.461200000000     0.106266666667   
O      0.016975000000     0.488266666667     0.129833333333   
O      0.215675000000     0.417633333333     0.199466666667   
O      0.160600000000     0.406133333333     0.186333333333   
C      0.179375000000     0.537133333333     0.382866666667   
C      0.047425000000     0.465566666667     0.398900000000   
C      0.038550000000     0.461633333333     0.361000000000   
C      0.078000000000     0.463000000000     0.657200000000   
C      0.070625000000     0.462866666667     0.617133333333   
C      0.108775000000     0.470866666667     0.578933333333   
C      0.008250000000     0.340700000000     0.476033333333   
C      0.052550000000     0.661033333333     0.457566666667   
C      0.059675000000     0.609733333333     0.469033333333   
C      0.238925000000     0.528100000000     0.564166666667   
C      0.202575000000     0.534433333333     0.601100000000   
C      0.211450000000     0.538366666667     0.639000000000   
C      0.172000000000     0.537000000000     0.342800000000   
C      0.197450000000     0.338966666667     0.542433333333   
C      0.141225000000     0.529133333333     0.421066666667   
C      0.011075000000     0.471900000000     0.435833333333   
C      0.190325000000     0.390266666667     0.530966666667   
C      0.241750000000     0.659300000000     0.523966666667   
H      0.094225000000     0.436400000000     0.664166666667   
H      0.191825000000     0.566733333333     0.379166666667   
H      0.198850000000     0.513233333333     0.387566666667   
H      0.156125000000     0.509333333333     0.347700000000   
H      0.155775000000     0.563600000000     0.335833333333   
H      0.228725000000     0.513066666667     0.646433333333   
H      0.226350000000     0.567200000000     0.632400000000   
H      0.183625000000     0.508433333333     0.609566666667   
H      0.188600000000     0.562166666667     0.591866666667   
H      0.069600000000     0.343466666667     0.466966666667   
H      0.093875000000     0.490666666667     0.652300000000   
H      0.061200000000     0.338600000000     0.427366666667   
H      0.241300000000     0.659600000000     0.465533333333   
H      0.058175000000     0.433266666667     0.620833333333   
H      0.008700000000     0.340400000000     0.534466666667   
H      0.244000000000     0.626000000000     0.533166666667   
H      0.188800000000     0.661400000000     0.572633333333   
H      0.180400000000     0.656533333333     0.533033333333   
H      0.061400000000     0.437833333333     0.408133333333   
H      0.051150000000     0.486766666667     0.612433333333   
H      0.023650000000     0.432800000000     0.367600000000   
H      0.021275000000     0.486933333333     0.353566666667   
H      0.006000000000     0.374000000000     0.466833333333   
H      0.066375000000     0.491566666667     0.390433333333   
Nd     0.063612500000     0.507473333333     0.496030000000   
Nd     0.186387500000     0.492526666667     0.503970000000   
O      0.106150000000     0.535766666667     0.417866666667   
O      0.144300000000     0.514766666667     0.457333333333   
O      0.024750000000     0.538800000000     0.560400000000   
O      0.233025000000     0.511733333333     0.536833333333   
O      0.034325000000     0.582366666667     0.467200000000   
O      0.089400000000     0.593866666667     0.480333333333   
O      0.143850000000     0.464233333333     0.582133333333   
O      0.105700000000     0.485233333333     0.542666666667   
O      0.225250000000     0.461200000000     0.439600000000   
O      0.016975000000     0.488266666667     0.463166666667   
O      0.215675000000     0.417633333333     0.532800000000   
O      0.160600000000     0.406133333333     0.519666666667   
C      0.179375000000     0.537133333333     0.716200000000   
C      0.047425000000     0.465566666667     0.732233333333   
C      0.038550000000     0.461633333333     0.694333333333   
C      0.078000000000     0.463000000000     0.990533333333   
C      0.070625000000     0.462866666667     0.950466666667   
C      0.108775000000     0.470866666667     0.912266666667   
C      0.008250000000     0.340700000000     0.809366666667   
C      0.052550000000     0.661033333333     0.790900000000   
C      0.059675000000     0.609733333333     0.802366666667   
C      0.238925000000     0.528100000000     0.897500000000   
C      0.202575000000     0.534433333333     0.934433333333   
C      0.211450000000     0.538366666667     0.972333333333   
C      0.172000000000     0.537000000000     0.676133333333   
C      0.197450000000     0.338966666667     0.875766666667   
C      0.141225000000     0.529133333333     0.754400000000   
C      0.011075000000     0.471900000000     0.769166666667   
C      0.190325000000     0.390266666667     0.864300000000   
C      0.241750000000     0.659300000000     0.857300000000   
H      0.094225000000     0.436400000000     0.997500000000   
H      0.191825000000     0.566733333333     0.712500000000   
H      0.198850000000     0.513233333333     0.720900000000   
H      0.156125000000     0.509333333333     0.681033333333   
H      0.155775000000     0.563600000000     0.669166666667   
H      0.228725000000     0.513066666667     0.979766666667   
H      0.226350000000     0.567200000000     0.965733333333   
H      0.183625000000     0.508433333333     0.942900000000   
H      0.188600000000     0.562166666667     0.925200000000   
H      0.069600000000     0.343466666667     0.800300000000   
H      0.093875000000     0.490666666667     0.985633333333   
H      0.061200000000     0.338600000000     0.760700000000   
H      0.241300000000     0.659600000000     0.798866666667   
H      0.058175000000     0.433266666667     0.954166666667   
H      0.008700000000     0.340400000000     0.867800000000   
H      0.244000000000     0.626000000000     0.866500000000   
H      0.188800000000     0.661400000000     0.905966666667   
H      0.180400000000     0.656533333333     0.866366666667   
H      0.061400000000     0.437833333333     0.741466666667   
H      0.051150000000     0.486766666667     0.945766666667   
H      0.023650000000     0.432800000000     0.700933333333   
H      0.021275000000     0.486933333333     0.686900000000   
H      0.006000000000     0.374000000000     0.800166666667   
H      0.066375000000     0.491566666667     0.723766666667   
Nd     0.063612500000     0.507473333333     0.829363333333   
Nd     0.186387500000     0.492526666667     0.837303333333   
O      0.106150000000     0.535766666667     0.751200000000   
O      0.144300000000     0.514766666667     0.790666666667   
O      0.024750000000     0.538800000000     0.893733333333   
O      0.233025000000     0.511733333333     0.870166666667   
O      0.034325000000     0.582366666667     0.800533333333   
O      0.089400000000     0.593866666667     0.813666666667   
O      0.143850000000     0.464233333333     0.915466666667   
O      0.105700000000     0.485233333333     0.876000000000   
O      0.225250000000     0.461200000000     0.772933333333   
O      0.016975000000     0.488266666667     0.796500000000   
O      0.215675000000     0.417633333333     0.866133333333   
O      0.160600000000     0.406133333333     0.853000000000   
C      0.179375000000     0.870466666667     0.049533333333   
C      0.047425000000     0.798900000000     0.065566666667   
C      0.038550000000     0.794966666667     0.027666666667   
C      0.078000000000     0.796333333333     0.323866666667   
C      0.070625000000     0.796200000000     0.283800000000   
C      0.108775000000     0.804200000000     0.245600000000   
C      0.008250000000     0.674033333333     0.142700000000   
C      0.052550000000     0.994366666667     0.124233333333   
C      0.059675000000     0.943066666667     0.135700000000   
C      0.238925000000     0.861433333333     0.230833333333   
C      0.202575000000     0.867766666667     0.267766666667   
C      0.211450000000     0.871700000000     0.305666666667   
C      0.172000000000     0.870333333333     0.009466666667   
C      0.197450000000     0.672300000000     0.209100000000   
C      0.141225000000     0.862466666667     0.087733333333   
C      0.011075000000     0.805233333333     0.102500000000   
C      0.190325000000     0.723600000000     0.197633333333   
C      0.241750000000     0.992633333333     0.190633333333   
H      0.094225000000     0.769733333333     0.330833333333   
H      0.191825000000     0.900066666667     0.045833333333   
H      0.198850000000     0.846566666667     0.054233333333   
H      0.156125000000     0.842666666667     0.014366666667   
H      0.155775000000     0.896933333333     0.002500000000   
H      0.228725000000     0.846400000000     0.313100000000   
H      0.226350000000     0.900533333333     0.299066666667   
H      0.183625000000     0.841766666667     0.276233333333   
H      0.188600000000     0.895500000000     0.258533333333   
H      0.069600000000     0.676800000000     0.133633333333   
H      0.093875000000     0.824000000000     0.318966666667   
H      0.061200000000     0.671933333333     0.094033333333   
H      0.241300000000     0.992933333333     0.132200000000   
H      0.058175000000     0.766600000000     0.287500000000   
H      0.008700000000     0.673733333333     0.201133333333   
H      0.244000000000     0.959333333333     0.199833333333   
H      0.188800000000     0.994733333333     0.239300000000   
H      0.180400000000     0.989866666667     0.199700000000   
H      0.061400000000     0.771166666667     0.074800000000   
H      0.051150000000     0.820100000000     0.279100000000   
H      0.023650000000     0.766133333333     0.034266666667   
H      0.021275000000     0.820266666667     0.020233333333   
H      0.006000000000     0.707333333333     0.133500000000   
H      0.066375000000     0.824900000000     0.057100000000   
Nd     0.063612500000     0.840806666667     0.162696666667   
Nd     0.186387500000     0.825860000000     0.170636666667   
O      0.106150000000     0.869100000000     0.084533333333   
O      0.144300000000     0.848100000000     0.124000000000   
O      0.024750000000     0.872133333333     0.227066666667   
O      0.233025000000     0.845066666667     0.203500000000   
O      0.034325000000     0.915700000000     0.133866666667   
O      0.089400000000     0.927200000000     0.147000000000   
O      0.143850000000     0.797566666667     0.248800000000   
O      0.105700000000     0.818566666667     0.209333333333   
O      0.225250000000     0.794533333333     0.106266666667   
O      0.016975000000     0.821600000000     0.129833333333   
O      0.215675000000     0.750966666667     0.199466666667   
O      0.160600000000     0.739466666667     0.186333333333   
C      0.179375000000     0.870466666667     0.382866666667   
C      0.047425000000     0.798900000000     0.398900000000   
C      0.038550000000     0.794966666667     0.361000000000   
C      0.078000000000     0.796333333333     0.657200000000   
C      0.070625000000     0.796200000000     0.617133333333   
C      0.108775000000     0.804200000000     0.578933333333   
C      0.008250000000     0.674033333333     0.476033333333   
C      0.052550000000     0.994366666667     0.457566666667   
C      0.059675000000     0.943066666667     0.469033333333   
C      0.238925000000     0.861433333333     0.564166666667   
C      0.202575000000     0.867766666667     0.601100000000   
C      0.211450000000     0.871700000000     0.639000000000   
C      0.172000000000     0.870333333333     0.342800000000   
C      0.197450000000     0.672300000000     0.542433333333   
C      0.141225000000     0.862466666667     0.421066666667   
C      0.011075000000     0.805233333333     0.435833333333   
C      0.190325000000     0.723600000000     0.530966666667   
C      0.241750000000     0.992633333333     0.523966666667   
H      0.094225000000     0.769733333333     0.664166666667   
H      0.191825000000     0.900066666667     0.379166666667   
H      0.198850000000     0.846566666667     0.387566666667   
H      0.156125000000     0.842666666667     0.347700000000   
H      0.155775000000     0.896933333333     0.335833333333   
H      0.228725000000     0.846400000000     0.646433333333   
H      0.226350000000     0.900533333333     0.632400000000   
H      0.183625000000     0.841766666667     0.609566666667   
H      0.188600000000     0.895500000000     0.591866666667   
H      0.069600000000     0.676800000000     0.466966666667   
H      0.093875000000     0.824000000000     0.652300000000   
H      0.061200000000     0.671933333333     0.427366666667   
H      0.241300000000     0.992933333333     0.465533333333   
H      0.058175000000     0.766600000000     0.620833333333   
H      0.008700000000     0.673733333333     0.534466666667   
H      0.244000000000     0.959333333333     0.533166666667   
H      0.188800000000     0.994733333333     0.572633333333   
H      0.180400000000     0.989866666667     0.533033333333   
H      0.061400000000     0.771166666667     0.408133333333   
H      0.051150000000     0.820100000000     0.612433333333   
H      0.023650000000     0.766133333333     0.367600000000   
H      0.021275000000     0.820266666667     0.353566666667   
H      0.006000000000     0.707333333333     0.466833333333   
H      0.066375000000     0.824900000000     0.390433333333   
Nd     0.063612500000     0.840806666667     0.496030000000   
Nd     0.186387500000     0.825860000000     0.503970000000   
O      0.106150000000     0.869100000000     0.417866666667   
O      0.144300000000     0.848100000000     0.457333333333   
O      0.024750000000     0.872133333333     0.560400000000   
O      0.233025000000     0.845066666667     0.536833333333   
O      0.034325000000     0.915700000000     0.467200000000   
O      0.089400000000     0.927200000000     0.480333333333   
O      0.143850000000     0.797566666667     0.582133333333   
O      0.105700000000     0.818566666667     0.542666666667   
O      0.225250000000     0.794533333333     0.439600000000   
O      0.016975000000     0.821600000000     0.463166666667   
O      0.215675000000     0.750966666667     0.532800000000   
O      0.160600000000     0.739466666667     0.519666666667   
C      0.179375000000     0.870466666667     0.716200000000   
C      0.047425000000     0.798900000000     0.732233333333   
C      0.038550000000     0.794966666667     0.694333333333   
C      0.078000000000     0.796333333333     0.990533333333   
C      0.070625000000     0.796200000000     0.950466666667   
C      0.108775000000     0.804200000000     0.912266666667   
C      0.008250000000     0.674033333333     0.809366666667   
C      0.052550000000     0.994366666667     0.790900000000   
C      0.059675000000     0.943066666667     0.802366666667   
C      0.238925000000     0.861433333333     0.897500000000   
C      0.202575000000     0.867766666667     0.934433333333   
C      0.211450000000     0.871700000000     0.972333333333   
C      0.172000000000     0.870333333333     0.676133333333   
C      0.197450000000     0.672300000000     0.875766666667   
C      0.141225000000     0.862466666667     0.754400000000   
C      0.011075000000     0.805233333333     0.769166666667   
C      0.190325000000     0.723600000000     0.864300000000   
C      0.241750000000     0.992633333333     0.857300000000   
H      0.094225000000     0.769733333333     0.997500000000   
H      0.191825000000     0.900066666667     0.712500000000   
H      0.198850000000     0.846566666667     0.720900000000   
H      0.156125000000     0.842666666667     0.681033333333   
H      0.155775000000     0.896933333333     0.669166666667   
H      0.228725000000     0.846400000000     0.979766666667   