%BLOCK LATTICE_CART
ang    # angstrom units
  8.915100000000     0.000000000000     0.000000000000   
  4.457520029136     8.178998363483     0.000000000000   
  4.457534304174     0.000004730864     8.178990583629   
%ENDBLOCK LATTICE_CART

%BLOCK POSITIONS_FRAC
C      0.139225000000     0.132000000000     0.129650000000   
C      0.110775000000     0.118000000000     0.120350000000   
C      0.224125000000     0.007000000000     0.004650000000   
C      0.231125000000     0.129650000000     0.243000000000   
C      0.228775000000     0.245350000000     0.132000000000   
C      0.025875000000     0.243000000000     0.245350000000   
C      0.018875000000     0.120350000000     0.007000000000   
C      0.021225000000     0.004650000000     0.118000000000   
K      0.093750000000     0.062500000000     0.062500000000   
K      0.156250000000     0.187500000000     0.187500000000   
O      0.043900000000     0.139675000000     0.239225000000   
O      0.056325000000     0.214825000000     0.219675000000   
O      0.047800000000     0.235325000000     0.135775000000   
O      0.206100000000     0.110325000000     0.010775000000   
O      0.115825000000     0.160175000000     0.155325000000   
O      0.033125000000     0.010775000000     0.014675000000   
O      0.021150000000     0.094675000000     0.035175000000   
O      0.066425000000     0.135775000000     0.139675000000   
O      0.183575000000     0.114225000000     0.110325000000   
O      0.216875000000     0.239225000000     0.235325000000   
O      0.228850000000     0.155325000000     0.214825000000   
O      0.202200000000     0.014675000000     0.114225000000   
O      0.193675000000     0.035175000000     0.030325000000   
O      0.026000000000     0.030325000000     0.089825000000   
O      0.134175000000     0.089825000000     0.094675000000   
O      0.224000000000     0.219675000000     0.160175000000   
Tb     0.031250000000     0.187500000000     0.187500000000   
Tb     0.218750000000     0.062500000000     0.062500000000   
C      0.139225000000     0.132000000000     0.379650000000   
C      0.110775000000     0.118000000000     0.370350000000   
C      0.224125000000     0.007000000000     0.254650000000   
C      0.231125000000     0.129650000000     0.493000000000   
C      0.228775000000     0.245350000000     0.382000000000   
C      0.025875000000     0.243000000000     0.495350000000   
C      0.018875000000     0.120350000000     0.257000000000   
C      0.021225000000     0.004650000000     0.368000000000   
K      0.093750000000     0.062500000000     0.312500000000   
K      0.156250000000     0.187500000000     0.437500000000   
O      0.043900000000     0.139675000000     0.489225000000   
O      0.056325000000     0.214825000000     0.469675000000   
O      0.047800000000     0.235325000000     0.385775000000   
O      0.206100000000     0.110325000000     0.260775000000   
O      0.115825000000     0.160175000000     0.405325000000   
O      0.033125000000     0.010775000000     0.264675000000   
O      0.021150000000     0.094675000000     0.285175000000   
O      0.066425000000     0.135775000000     0.389675000000   
O      0.183575000000     0.114225000000     0.360325000000   
O      0.216875000000     0.239225000000     0.485325000000   
O      0.228850000000     0.155325000000     0.464825000000   
O      0.202200000000     0.014675000000     0.364225000000   
O      0.193675000000     0.035175000000     0.280325000000   
O      0.026000000000     0.030325000000     0.339825000000   
O      0.134175000000     0.089825000000     0.344675000000   
O      0.224000000000     0.219675000000     0.410175000000   
Tb     0.031250000000     0.187500000000     0.437500000000   
Tb     0.218750000000     0.062500000000     0.312500000000   
C      0.139225000000     0.132000000000     0.629650000000   
C      0.110775000000     0.118000000000     0.620350000000   
C      0.224125000000     0.007000000000     0.504650000000   
C      0.231125000000     0.129650000000     0.743000000000   
C      0.228775000000     0.245350000000     0.632000000000   
C      0.025875000000     0.243000000000     0.745350000000   
C      0.018875000000     0.120350000000     0.507000000000   
C      0.021225000000     0.004650000000     0.618000000000   
K      0.093750000000     0.062500000000     0.562500000000   
K      0.156250000000     0.187500000000     0.687500000000   
O      0.043900000000     0.139675000000     0.739225000000   
O      0.056325000000     0.214825000000     0.719675000000   
O      0.047800000000     0.235325000000     0.635775000000   
O      0.206100000000     0.110325000000     0.510775000000   
O      0.115825000000     0.160175000000     0.655325000000   
O      0.033125000000     0.010775000000     0.514675000000   
O      0.021150000000     0.094675000000     0.535175000000   
O      0.066425000000     0.135775000000     0.639675000000   
O      0.183575000000     0.114225000000     0.610325000000   
O      0.216875000000     0.239225000000     0.735325000000   
O      0.228850000000     0.155325000000     0.714825000000   
O      0.202200000000     0.014675000000     0.614225000000   
O      0.193675000000     0.035175000000     0.530325000000   
O      0.026000000000     0.030325000000     0.589825000000   
O      0.134175000000     0.089825000000     0.594675000000   
O      0.224000000000     0.219675000000     0.660175000000   
Tb     0.031250000000     0.187500000000     0.687500000000   
Tb     0.218750000000     0.062500000000     0.562500000000   
C      0.139225000000     0.132000000000     0.879650000000   
C      0.110775000000     0.118000000000     0.870350000000   
C      0.224125000000     0.007000000000     0.754650000000   
C      0.231125000000     0.129650000000     0.993000000000   
C      0.228775000000     0.245350000000     0.882000000000   
C      0.025875000000     0.243000000000     0.995350000000   
C      0.018875000000     0.120350000000     0.757000000000   
C      0.021225000000     0.004650000000     0.868000000000   
K      0.093750000000     0.062500000000     0.812500000000   
K      0.156250000000     0.187500000000     0.937500000000   
O      0.043900000000     0.139675000000     0.989225000000   
O      0.056325000000     0.214825000000     0.969675000000   
O      0.047800000000     0.235325000000     0.885775000000   
O      0.206100000000     0.110325000000     0.760775000000   
O      0.115825000000     0.160175000000     0.905325000000   
O      0.033125000000     0.010775000000     0.764675000000   
O      0.021150000000     0.094675000000     0.785175000000   
O      0.066425000000     0.135775000000     0.889675000000   
O      0.183575000000     0.114225000000     0.860325000000   
O      0.216875000000     0.239225000000     0.985325000000   
O      0.228850000000     0.155325000000     0.964825000000   
O      0.202200000000     0.014675000000     0.864225000000   
O      0.193675000000     0.035175000000     0.780325000000   
O      0.026000000000     0.030325000000     0.839825000000   
O      0.134175000000     0.089825000000     0.844675000000   
O      0.224000000000     0.219675000000     0.910175000000   
Tb     0.031250000000     0.187500000000     0.937500000000   
Tb     0.218750000000     0.062500000000     0.812500000000   
C      0.139225000000     0.382000000000     0.129650000000   
C      0.110775000000     0.368000000000     0.120350000000   
C      0.224125000000     0.257000000000     0.004650000000   
C      0.231125000000     0.379650000000     0.243000000000   
C      0.228775000000     0.495350000000     0.132000000000   
C      0.025875000000     0.493000000000     0.245350000000   
C      0.018875000000     0.370350000000     0.007000000000   
C      0.021225000000     0.254650000000     0.118000000000   
K      0.093750000000     0.312500000000     0.062500000000   
K      0.156250000000     0.437500000000     0.187500000000   
O      0.043900000000     0.389675000000     0.239225000000   
O      0.056325000000     0.464825000000     0.219675000000   
O      0.047800000000     0.485325000000     0.135775000000   
O      0.206100000000     0.360325000000     0.010775000000   
O      0.115825000000     0.410175000000     0.155325000000   
O      0.033125000000     0.260775000000     0.014675000000   
O      0.021150000000     0.344675000000     0.035175000000   
O      0.066425000000     0.385775000000     0.139675000000   
O      0.183575000000     0.364225000000     0.110325000000   
O      0.216875000000     0.489225000000     0.235325000000   
O      0.228850000000     0.405325000000     0.214825000000   
O      0.202200000000     0.264675000000     0.114225000000   
O      0.193675000000     0.285175000000     0.030325000000   
O      0.026000000000     0.280325000000     0.089825000000   
O      0.134175000000     0.339825000000     0.094675000000   
O      0.224000000000     0.469675000000     0.160175000000   
Tb     0.031250000000     0.437500000000     0.187500000000   
Tb     0.218750000000     0.312500000000     0.062500000000   
C      0.139225000000     0.382000000000     0.379650000000   
C      0.110775000000     0.368000000000     0.370350000000   
C      0.224125000000     0.257000000000     0.254650000000   
C      0.231125000000     0.379650000000     0.493000000000   
C      0.228775000000     0.495350000000     0.382000000000   
C      0.025875000000     0.493000000000     0.495350000000   
C      0.018875000000     0.370350000000     0.257000000000   
C      0.021225000000     0.254650000000     0.368000000000   
K      0.093750000000     0.312500000000     0.312500000000   
K      0.156250000000     0.437500000000     0.437500000000   
O      0.043900000000     0.389675000000     0.489225000000   
O      0.056325000000     0.464825000000     0.469675000000   
O      0.047800000000     0.485325000000     0.385775000000   
O      0.206100000000     0.360325000000     0.260775000000   
O      0.115825000000     0.410175000000     0.405325000000   
O      0.033125000000     0.260775000000     0.264675000000   
O      0.021150000000     0.344675000000     0.285175000000   
O      0.066425000000     0.385775000000     0.389675000000   
O      0.183575000000     0.364225000000     0.360325000000   
O      0.216875000000     0.489225000000     0.485325000000   
O      0.228850000000     0.405325000000     0.464825000000   
O      0.202200000000     0.264675000000     0.364225000000   
O      0.193675000000     0.285175000000     0.280325000000   
O      0.026000000000     0.280325000000     0.339825000000   
O      0.134175000000     0.339825000000     0.344675000000   
O      0.224000000000     0.469675000000     0.410175000000   
Tb     0.031250000000     0.437500000000     0.437500000000   
Tb     0.218750000000     0.312500000000     0.312500000000   
C      0.139225000000     0.382000000000     0.629650000000   
C      0.110775000000     0.368000000000     0.620350000000   
C      0.224125000000     0.257000000000     0.504650000000   
C      0.231125000000     0.379650000000     0.743000000000   
C      0.228775000000     0.495350000000     0.632000000000   
C      0.025875000000     0.493000000000     0.745350000000   
C      0.018875000000     0.370350000000     0.507000000000   
C      0.021225000000     0.254650000000     0.618000000000   
K      0.093750000000     0.312500000000     0.562500000000   
K      0.156250000000     0.437500000000     0.687500000000   
O      0.043900000000     0.389675000000     0.739225000000   
O      0.056325000000     0.464825000000     0.719675000000   
O      0.047800000000     0.485325000000     0.635775000000   
O      0.206100000000     0.360325000000     0.510775000000   
O      0.115825000000     0.410175000000     0.655325000000   
O      0.033125000000     0.260775000000     0.514675000000   
O      0.021150000000     0.344675000000     0.535175000000   
O      0.066425000000     0.385775000000     0.639675000000   
O      0.183575000000     0.364225000000     0.610325000000   
O      0.216875000000     0.489225000000     0.735325000000   
O      0.228850000000     0.405325000000     0.714825000000   
O      0.202200000000     0.264675000000     0.614225000000   
O      0.193675000000     0.285175000000     0.530325000000   
O      0.026000000000     0.280325000000     0.589825000000   
O      0.134175000000     0.339825000000     0.594675000000   
O      0.224000000000     0.469675000000     0.660175000000   
Tb     0.031250000000     0.437500000000     0.687500000000   
Tb     0.218750000000     0.312500000000     0.562500000000   
C      0.139225000000     0.382000000000     0.879650000000   
C      0.110775000000     0.368000000000     0.870350000000   
C      0.224125000000     0.257000000000     0.754650000000   
C      0.231125000000     0.379650000000     0.993000000000   
C      0.228775000000     0.495350000000     0.882000000000   
C      0.025875000000     0.493000000000     0.995350000000   
C      0.018875000000     0.370350000000     0.757000000000   
C      0.021225000000     0.254650000000     0.868000000000   
K      0.093750000000     0.312500000000     0.812500000000   
K      0.156250000000     0.437500000000     0.937500000000   
O      0.043900000000     0.389675000000     0.989225000000   
O      0.056325000000     0.464825000000     0.969675000000   
O      0.047800000000     0.485325000000     0.885775000000   
O      0.206100000000     0.360325000000     0.760775000000   
O      0.115825000000     0.410175000000     0.905325000000   
O      0.033125000000     0.260775000000     0.764675000000   
O      0.021150000000     0.344675000000     0.785175000000   
O      0.066425000000     0.385775000000     0.889675000000   
O      0.183575000000     0.364225000000     0.860325000000   
O      0.216875000000     0.489225000000     0.985325000000   
O      0.228850000000     0.405325000000     0.964825000000   
O      0.202200000000     0.264675000000     0.864225000000   
O      0.193675000000     0.285175000000     0.780325000000   
O      0.026000000000     0.280325000000     0.839825000000   
O      0.134175000000     0.339825000000     0.844675000000   
O      0.224000000000     0.469675000000     0.910175000000   
Tb     0.031250000000     0.437500000000     0.937500000000   
Tb     0.218750000000     0.312500000000     0.812500000000   
C      0.139225000000     0.632000000000     0.129650000000   
C      0.110775000000     0.618000000000     0.120350000000   
C      0.224125000000     0.507000000000     0.004650000000   
C      0.231125000000     0.629650000000     0.243000000000   
C      0.228775000000     0.745350000000     0.132000000000   
C      0.025875000000     0.743000000000     0.245350000000   
C      0.018875000000     0.620350000000     0.007000000000   
C      0.021225000000     0.504650000000     0.118000000000   
K      0.093750000000     0.562500000000     0.062500000000   
K      0.156250000000     0.687500000000     0.187500000000   
O      0.043900000000     0.639675000000     0.239225000000   
O      0.056325000000     0.714825000000     0.219675000000   
O      0.047800000000     0.735325000000     0.135775000000   
O      0.206100000000     0.610325000000     0.010775000000   
O      0.115825000000     0.660175000000     0.155325000000   
O      0.033125000000     0.510775000000     0.014675000000   
O      0.021150000000     0.594675000000     0.035175000000   
O      0.066425000000     0.635775000000     0.139675000000   
O      0.183575000000     0.614225000000     0.110325000000   
O      0.216875000000     0.739225000000     0.235325000000   
O      0.228850000000     0.655325000000     0.214825000000   
O      0.202200000000     0.514675000000     0.114225000000   
O      0.193675000000     0.535175000000     0.030325000000   
O      0.026000000000     0.530325000000     0.089825000000   
O      0.134175000000     0.589825000000     0.094675000000   
O      0.224000000000     0.719675000000     0.160175000000   
Tb     0.031250000000     0.687500000000     0.187500000000   
Tb     0.218750000000     0.562500000000     0.062500000000   
C      0.139225000000     0.632000000000     0.379650000000   
C      0.110775000000     0.618000000000     0.370350000000   
C      0.224125000000     0.507000000000     0.254650000000   
C      0.231125000000     0.629650000000     0.493000000000   
C      0.228775000000     0.745350000000     0.382000000000   
C      0.025875000000     0.743000000000     0.495350000000   
C      0.018875000000     0.620350000000     0.257000000000   
C      0.021225000000     0.504650000000     0.368000000000   
K      0.093750000000     0.562500000000     0.312500000000   
K      0.156250000000     0.687500000000     0.437500000000   
O      0.043900000000     0.639675000000     0.489225000000   
O      0.056325000000     0.714825000000     0.469675000000   
O      0.047800000000     0.735325000000     0.385775000000   
O      0.206100000000     0.610325000000     0.260775000000   
O      0.115825000000     0.660175000000     0.405325000000   
O      0.033125000000     0.510775000000     0.264675000000   
O      0.021150000000     0.594675000000     0.285175000000   
O      0.066425000000     0.635775000000     0.389675000000   
O      0.183575000000     0.614225000000     0.360325000000   
O      0.216875000000     0.739225000000     0.485325000000   
O      0.228850000000     0.655325000000     0.464825000000   
O      0.202200000000     0.514675000000     0.364225000000   
O      0.193675000000     0.535175000000     0.280325000000   
O      0.026000000000     0.530325000000     0.339825000000   
O      0.134175000000     0.589825000000     0.344675000000   
O      0.224000000000     0.719675000000     0.410175000000   
Tb     0.031250000000     0.687500000000     0.437500000000   
Tb     0.218750000000     0.562500000000     0.312500000000   
C      0.139225000000     0.632000000000     0.629650000000   
C      0.110775000000     0.618000000000     0.620350000000   
C      0.224125000000     0.507000000000     0.504650000000   
C      0.231125000000     0.629650000000     0.743000000000   
C      0.228775000000     0.745350000000     0.632000000000   
C      0.025875000000     0.743000000000     0.745350000000   
C      0.018875000000     0.620350000000     0.507000000000   
C      0.021225000000     0.504650000000     0.618000000000   
K      0.093750000000     0.562500000000     0.562500000000   
K      0.156250000000     0.687500000000     0.687500000000   
O      0.043900000000     0.639675000000     0.739225000000   
O      0.056325000000     0.714825000000     0.719675000000   
O      0.047800000000     0.735325000000     0.635775000000   
O      0.206100000000     0.610325000000     0.510775000000   
O      0.115825000000     0.660175000000     0.655325000000   
O      0.033125000000     0.510775000000     0.514675000000   
O      0.021150000000     0.594675000000     0.535175000000   
O      0.066425000000     0.635775000000     0.639675000000   
O      0.183575000000     0.614225000000     0.610325000000   
O      0.216875000000     0.739225000000     0.735325000000   
O      0.228850000000     0.655325000000     0.714825000000   
O      0.202200000000     0.514675000000     0.614225000000   
O      0.193675000000     0.535175000000     0.530325000000   
O      0.026000000000     0.530325000000     0.589825000000   
O      0.134175000000     0.589825000000     0.594675000000   
O      0.224000000000     0.719675000000     0.660175000000   
Tb     0.031250000000     0.687500000000     0.687500000000   
Tb     0.218750000000     0.562500000000     0.562500000000   
C      0.139225000000     0.632000000000     0.879650000000   
C      0.110775000000     0.618000000000     0.870350000000   
C      0.224125000000     0.507000000000     0.754650000000   
C      0.231125000000     0.629650000000     0.993000000000   
C      0.228775000000     0.745350000000     0.882000000000   
C      0.025875000000     0.743000000000     0.995350000000   
C      0.018875000000     0.620350000000     0.757000000000   
C      0.021225000000     0.504650000000     0.868000000000   
K      0.093750000000     0.562500000000     0.812500000000   
K      0.156250000000     0.687500000000     0.937500000000   
O      0.043900000000     0.639675000000     0.989225000000   
O      0.056325000000     0.714825000000     0.969675000000   
O      0.047800000000     0.735325000000     0.885775000000   
O      0.206100000000     0.610325000000     0.760775000000   
O      0.115825000000     0.660175000000     0.905325000000   
O      0.033125000000     0.510775000000     0.764675000000   
O      0.021150000000     0.594675000000     0.785175000000   
O      0.066425000000     0.635775000000     0.889675000000   
O      0.183575000000     0.614225000000     0.860325000000   
O      0.216875000000     0.739225000000     0.985325000000   
O      0.228850000000     0.655325000000     0.964825000000   
O      0.202200000000     0.514675000000     0.864225000000   
O      0.193675000000     0.535175000000     0.780325000000   
O      0.026000000000     0.530325000000     0.839825000000   
O      0.134175000000     0.589825000000     0.844675000000   
O      0.224000000000     0.719675000000     0.910175000000   
Tb     0.031250000000     0.687500000000     0.937500000000   
Tb     0.218750000000     0.562500000000     0.812500000000   
C      0.139225000000     0.882000000000     0.129650000000   
C      0.110775000000     0.868000000000     0.120350000000   
C      0.224125000000     0.757000000000     0.004650000000   
C      0.231125000000     0.879650000000     0.243000000000   
C      0.228775000000     0.995350000000     0.132000000000   
C      0.025875000000     0.993000000000     0.245350000000   
C      0.018875000000     0.870350000000     0.007000000000   
C      0.021225000000     0.754650000000     0.118000000000   
K      0.093750000000     0.812500000000     0.062500000000   
K      0.156250000000     0.937500000000     0.187500000000   
O      0.043900000000     0.889675000000     0.239225000000   
O      0.056325000000     0.964825000000     0.219675000000   
O      0.047800000000     0.985325000000     0.135775000000   
O      0.206100000000     0.860325000000     0.010775000000   
O      0.115825000000     0.910175000000     0.155325000000   
O      0.033125000000     0.760775000000     0.014675000000   
O      0.021150000000     0.844675000000     0.035175000000   
O      0.066425000000     0.885775000000     0.139675000000   
O      0.183575000000     0.864225000000     0.110325000000   
O      0.216875000000     0.989225000000     0.235325000000   
O      0.228850000000     0.905325000000     0.214825000000   
O      0.202200000000     0.764675000000     0.114225000000   
O      0.193675000000     0.785175000000     0.030325000000   
O      0.026000000000     0.780325000000     0.089825000000   
O      0.134175000000     0.839825000000     0.094675000000   
O      0.224000000000     0.969675000000     0.160175000000   
Tb     0.031250000000     0.937500000000     0.187500000000   
Tb     0.218750000000     0.812500000000     0.062500000000   
C      0.139225000000     0.882000000000     0.379650000000   
C      0.110775000000     0.868000000000     0.370350000000   
C      0.224125000000     0.757000000000     0.254650000000   
C      0.231125000000     0.879650000000     0.493000000000   
C      0.228775000000     0.995350000000     0.382000000000   
C      0.025875000000     0.993000000000     0.495350000000   
C      0.018875000000     0.870350000000     0.257000000000   
C      0.021225000000     0.754650000000     0.368000000000   
K      0.093750000000     0.812500000000     0.312500000000   
K      0.156250000000     0.937500000000     0.437500000000   
O      0.043900000000     0.889675000000     0.489225000000   
O      0.056325000000     0.964825000000     0.469675000000   
O      0.047800000000     0.985325000000     0.385775000000   
O      0.206100000000     0.860325000000     0.260775000000   
O      0.115825000000     0.910175000000     0.405325000000   
O      0.033125000000     0.760775000000     0.264675000000   
O      0.021150000000     0.844675000000     0.285175000000   
O      0.066425000000     0.885775000000     0.389675000000   
O      0.183575000000     0.864225000000     0.360325000000   
O      0.216875000000     0.989225000000     0.485325000000   
O      0.228850000000     0.905325000000     0.464825000000   
O      0.202200000000     0.764675000000     0.364225000000   
O      0.193675000000     0.785175000000     0.280325000000   
O      0.026000000000     0.780325000000     0.339825000000   
O      0.134175000000     0.839825000000     0.344675000000   
O      0.224000000000     0.969675000000     0.410175000000   
Tb     0.031250000000     0.937500000000     0.437500000000   
Tb     0.218750000000     0.812500000000     0.312500000000   
C      0.139225000000     0.882000000000     0.629650000000   
C      0.110775000000     0.868000000000     0.620350000000   
C      0.224125000000     0.757000000000     0.504650000000   
C      0.231125000000     0.879650000000     0.743000000000   
C      0.228775000000     0.995350000000     0.632000000000   
C      0.025875000000     0.993000000000     0.745350000000   
C      0.018875000000     0.870350000000     0.507000000000   
C      0.021225000000     0.754650000000     0.618000000000   
K      0.093750000000     0.812500000000     0.562500000000   
K      0.156250000000     0.937500000000     0.687500000000   
O      0.043900000000     0.889675000000     0.739225000000   
O      0.056325000000     0.964825000000     0.719675000000   
O      0.047800000000     0.985325000000     0.635775000000   
O      0.206100000000     0.860325000000     0.510775000000   
O      0.115825000000     0.910175000000     0.655325000000   
O      0.033125000000     0.760775000000     0.514675000000   
O      0.021150000000     0.844675000000     0.535175000000   
O      0.066425000000     0.885775000000     0.639675000000   
O      0.183575000000     0.864225000000     0.610325000000   
O      0.216875000000     0.989225000000     0.735325000000   
O      0.228850000000     0.905325000000     0.714825000000   
O      0.202200000000     0.764675000000     0.614225000000   
O      0.193675000000     0.785175000000     0.530325000000   
O      0.026000000000     0.780325000000     0.589825000000   
O      0.134175000000     0.839825000000     0.594675000000   
O      0.224000000000     0.969675000000     0.660175000000   
Tb     0.031250000000     0.937500000000     0.687500000000   
Tb     0.218750000000     0.812500000000     0.562500000000   
C      0.139225000000     0.882000000000     0.879650000000   
C      0.110775000000     0.868000000000     0.870350000000   
C      0.224125000000     0.757000000000     0.754650000000   
C      0.231125000000     0.879650000000     0.993000000000   
C      0.228775000000     0.995350000000     0.882000000000   
C      0.025875000000     0.993000000000     0.995350000000   
C      0.018875000000     0.870350000000     0.757000000000   
C      0.021225000000     0.754650000000     0.868000000000   
K      0.093750000000     0.812500000000     0.812500000000   
K      0.156250000000     0.937500000000     0.937500000000   
O      0.043900000000     0.889675000000     0.989225000000   
O      0.056325000000     0.964825000000     0.969675000000   
O      0.047800000000     0.985325000000     0.885775000000   
O      0.206100000000     0.860325000000     0.760775000000   
O      0.115825000000     0.910175000000     0.905325000000   
O      0.033125000000     0.760775000000     0.764675000000   
O      0.021150000000     0.844675000000     0.785175000000   
O      0.066425000000     0.885775000000     0.889675000000   
O      0.183575000000     0.864225000000     0.860325000000   
O      0.216875000000     0.989225000000     0.985325000000   
O      0.228850000000     0.905325000000     0.964825000000   
O      0.202200000000     0.764675000000     0.864225000000   
O      0.193675000000     0.785175000000     0.780325000000   
O      0.026000000000     0.780325000000     0.839825000000   
O      0.134175000000     0.839825000000     0.844675000000   
O      0.224000000000     0.969675000000     0.910175000000   
Tb     0.031250000000     0.937500000000     0.937500000000   
Tb     0.218750000000     0.812500000000     0.812500000000   
C      0.389225000000     0.132000000000     0.129650000000   
C      0.360775000000     0.118000000000     0.120350000000   
C      0.474125000000     0.007000000000     0.004650000000   
C      0.481125000000     0.129650000000     0.243000000000   
C      0.478775000000     0.245350000000     0.132000000000   
C      0.275875000000     0.243000000000     0.245350000000   
C      0.268875000000     0.120350000000     0.007000000000   
C      0.271225000000     0.004650000000     0.118000000000   
K      0.343750000000     0.062500000000     0.062500000000   
K      0.406250000000     0.187500000000     0.187500000000   
O      0.293900000000     0.139675000000     0.239225000000   
O      0.306325000000     0.214825000000     0.219675000000   
O      0.297800000000     0.235325000000     0.135775000000   
O      0.456100000000     0.110325000000     0.010775000000   
O      0.365825000000     0.160175000000     0.155325000000   
O      0.283125000000     0.010775000000     0.014675000000   
O      0.271150000000     0.094675000000     0.035175000000   
O      0.316425000000     0.135775000000     0.139675000000   
O      0.433575000000     0.114225000000     0.110325000000   
O      0.466875000000     0.239225000000     0.235325000000   
O      0.478850000000     0.155325000000     0.214825000000   
O      0.452200000000     0.014675000000     0.114225000000   
O      0.443675000000     0.035175000000     0.030325000000   
O      0.276000000000     0.030325000000     0.089825000000   