%BLOCK LATTICE_CART
ang    # angstrom units
  9.809000000000     0.000000000000     0.000000000000   
  0.000000000000     11.595000000000    0.000000000000   
  0.000000000000     0.000000000000     12.065000000000  
%ENDBLOCK LATTICE_CART

%BLOCK POSITIONS_FRAC
Cu     0.063330000000     0.085623333333     0.309136666667   
O      0.001500000000     0.086900000000     0.328000000000   
O      0.291000000000     0.074433333333     0.043333333333   
O      0.075433333333     0.064833333333     0.026200000000   
H      0.104300000000     0.061066666667     0.022300000000   
O      0.107533333333     0.328500000000     0.041300000000   
H      0.129900000000     0.324866666667     0.029066666667   
O      0.107133333333     0.309000000000     0.116566666667   
H      0.130566666667     0.307866666667     0.102766666667   
O      0.077133333333     0.049066666667     0.143900000000   
H      0.070266666667     0.029566666667     0.155900000000   
C      0.328566666667     0.073433333333     0.026733333333   
C      0.034000000000     0.052733333333     0.045666666667   
C      0.026833333333     0.009066666667     0.041100000000   
H      0.331500000000     0.001766666667     0.052366666667   
H      0.025233333333     0.002800000000     0.015033333333   
C      0.065233333333     0.319666666667     0.058933333333   
H      0.059033333333     0.292100000000     0.056600000000   
C      0.070400000000     0.330166666667     0.099966666667   
H      0.042266666667     0.322866666667     0.112633333333   
C      0.077133333333     0.040000000000     0.105200000000   
H      0.106433333333     0.047500000000     0.094533333333   
C      0.039266666667     0.063166666667     0.086566666667   
H      0.010800000000     0.058333333333     0.099233333333   
H      0.046000000000     0.090366666667     0.088700000000   
Cu     0.229996666667     0.081043333333     0.024196666667   
O      0.168166666667     0.079766666667     0.005333333333   
O      0.124333333333     0.092233333333     0.290000000000   
O      0.242100000000     0.101833333333     0.307133333333   
H      0.270966666667     0.105600000000     0.311033333333   
O      0.274200000000     0.171500000000     0.292033333333   
H      0.296566666667     0.175133333333     0.304266666667   
O      0.273800000000     0.191000000000     0.216766666667   
H      0.297233333333     0.192133333333     0.230566666667   
O      0.243800000000     0.117600000000     0.189433333333   
H      0.236933333333     0.137100000000     0.177433333333   
C      0.161900000000     0.093233333333     0.306600000000   
C      0.200666666667     0.113933333333     0.287666666667   
C      0.193500000000     0.157600000000     0.292233333333   
H      0.164833333333     0.164900000000     0.280966666667   
H      0.191900000000     0.163866666667     0.318300000000   
C      0.231900000000     0.180333333333     0.274400000000   
H      0.225700000000     0.207900000000     0.276733333333   
C      0.237066666667     0.169833333333     0.233366666667   
H      0.208933333333     0.177133333333     0.220700000000   
C      0.243800000000     0.126666666667     0.228133333333   
H      0.273100000000     0.119166666667     0.238800000000   
C      0.205933333333     0.103500000000     0.246766666667   
H      0.177466666667     0.108333333333     0.234100000000   
H      0.212666666667     0.076300000000     0.244633333333   
Cu     0.103336666667     0.247710000000     0.142470000000   
O      0.165166666667     0.246433333333     0.161333333333   
O      0.209000000000     0.258900000000     0.210000000000   
O      0.091233333333     0.268500000000     0.192866666667   
H      0.062366666667     0.272266666667     0.188966666667   
O      0.059133333333     0.004833333333     0.207966666667   
H      0.036766666667     0.008466666667     0.195733333333   
O      0.059533333333     0.024333333333     0.283233333333   
H      0.036100000000     0.025466666667     0.269433333333   
O      0.089533333333     0.284266666667     0.310566666667   
H      0.096400000000     0.303766666667     0.322566666667   
C      0.171433333333     0.259900000000     0.193400000000   
C      0.132666666667     0.280600000000     0.212333333333   
C      0.139833333333     0.324266666667     0.207766666667   
H      0.168500000000     0.331566666667     0.219033333333   
H      0.141433333333     0.330533333333     0.181700000000   
C      0.101433333333     0.013666666667     0.225600000000   
H      0.107633333333     0.041233333333     0.223266666667   
C      0.096266666667     0.003166666667     0.266633333333   
H      0.124400000000     0.010466666667     0.279300000000   
C      0.089533333333     0.293333333333     0.271866666667   
H      0.060233333333     0.285833333333     0.261200000000   
C      0.127400000000     0.270166666667     0.253233333333   
H      0.155866666667     0.275000000000     0.265900000000   
H      0.120666666667     0.242966666667     0.255366666667   
Cu     0.270003333333     0.252290000000     0.190863333333   
O      0.331833333333     0.253566666667     0.172000000000   
O      0.042333333333     0.241100000000     0.123333333333   
O      0.257900000000     0.231500000000     0.140466666667   
H      0.229033333333     0.227733333333     0.144366666667   
O      0.225800000000     0.161833333333     0.125366666667   
H      0.203433333333     0.158200000000     0.137600000000   
O      0.226200000000     0.142333333333     0.050100000000   
H      0.202766666667     0.141200000000     0.063900000000   
O      0.256200000000     0.215733333333     0.022766666667   
H      0.263066666667     0.196233333333     0.010766666667   
C      0.004766666667     0.240100000000     0.139933333333   
C      0.299333333333     0.219400000000     0.121000000000   
C      0.306500000000     0.175733333333     0.125566666667   
H      0.001833333333     0.168433333333     0.114300000000   
H      0.308100000000     0.169466666667     0.151633333333   
C      0.268100000000     0.153000000000     0.107733333333   
H      0.274300000000     0.125433333333     0.110066666667   
C      0.262933333333     0.163500000000     0.066700000000   
H      0.291066666667     0.156200000000     0.054033333333   
C      0.256200000000     0.206666666667     0.061466666667   
H      0.226900000000     0.214166666667     0.072133333333   
C      0.294066666667     0.229833333333     0.080100000000   
H      0.322533333333     0.225000000000     0.067433333333   
H      0.287333333333     0.257033333333     0.077966666667   
Cu     0.063330000000     0.085623333333     0.642470000000   
O      0.001500000000     0.086900000000     0.661333333333   
O      0.291000000000     0.074433333333     0.376666666667   
O      0.075433333333     0.064833333333     0.359533333333   
H      0.104300000000     0.061066666667     0.355633333333   
O      0.107533333333     0.328500000000     0.374633333333   
H      0.129900000000     0.324866666667     0.362400000000   
O      0.107133333333     0.309000000000     0.449900000000   
H      0.130566666667     0.307866666667     0.436100000000   
O      0.077133333333     0.049066666667     0.477233333333   
H      0.070266666667     0.029566666667     0.489233333333   
C      0.328566666667     0.073433333333     0.360066666667   
C      0.034000000000     0.052733333333     0.379000000000   
C      0.026833333333     0.009066666667     0.374433333333   
H      0.331500000000     0.001766666667     0.385700000000   
H      0.025233333333     0.002800000000     0.348366666667   
C      0.065233333333     0.319666666667     0.392266666667   
H      0.059033333333     0.292100000000     0.389933333333   
C      0.070400000000     0.330166666667     0.433300000000   
H      0.042266666667     0.322866666667     0.445966666667   
C      0.077133333333     0.040000000000     0.438533333333   
H      0.106433333333     0.047500000000     0.427866666667   
C      0.039266666667     0.063166666667     0.419900000000   
H      0.010800000000     0.058333333333     0.432566666667   
H      0.046000000000     0.090366666667     0.422033333333   
Cu     0.229996666667     0.081043333333     0.357530000000   
O      0.168166666667     0.079766666667     0.338666666667   
O      0.124333333333     0.092233333333     0.623333333333   
O      0.242100000000     0.101833333333     0.640466666667   
H      0.270966666667     0.105600000000     0.644366666667   
O      0.274200000000     0.171500000000     0.625366666667   
H      0.296566666667     0.175133333333     0.637600000000   
O      0.273800000000     0.191000000000     0.550100000000   
H      0.297233333333     0.192133333333     0.563900000000   
O      0.243800000000     0.117600000000     0.522766666667   
H      0.236933333333     0.137100000000     0.510766666667   
C      0.161900000000     0.093233333333     0.639933333333   
C      0.200666666667     0.113933333333     0.621000000000   
C      0.193500000000     0.157600000000     0.625566666667   
H      0.164833333333     0.164900000000     0.614300000000   
H      0.191900000000     0.163866666667     0.651633333333   
C      0.231900000000     0.180333333333     0.607733333333   
H      0.225700000000     0.207900000000     0.610066666667   
C      0.237066666667     0.169833333333     0.566700000000   
H      0.208933333333     0.177133333333     0.554033333333   
C      0.243800000000     0.126666666667     0.561466666667   
H      0.273100000000     0.119166666667     0.572133333333   
C      0.205933333333     0.103500000000     0.580100000000   
H      0.177466666667     0.108333333333     0.567433333333   
H      0.212666666667     0.076300000000     0.577966666667   
Cu     0.103336666667     0.247710000000     0.475803333333   
O      0.165166666667     0.246433333333     0.494666666667   
O      0.209000000000     0.258900000000     0.543333333333   
O      0.091233333333     0.268500000000     0.526200000000   
H      0.062366666667     0.272266666667     0.522300000000   
O      0.059133333333     0.004833333333     0.541300000000   
H      0.036766666667     0.008466666667     0.529066666667   
O      0.059533333333     0.024333333333     0.616566666667   
H      0.036100000000     0.025466666667     0.602766666667   
O      0.089533333333     0.284266666667     0.643900000000   
H      0.096400000000     0.303766666667     0.655900000000   
C      0.171433333333     0.259900000000     0.526733333333   
C      0.132666666667     0.280600000000     0.545666666667   
C      0.139833333333     0.324266666667     0.541100000000   
H      0.168500000000     0.331566666667     0.552366666667   
H      0.141433333333     0.330533333333     0.515033333333   
C      0.101433333333     0.013666666667     0.558933333333   
H      0.107633333333     0.041233333333     0.556600000000   
C      0.096266666667     0.003166666667     0.599966666667   
H      0.124400000000     0.010466666667     0.612633333333   
C      0.089533333333     0.293333333333     0.605200000000   
H      0.060233333333     0.285833333333     0.594533333333   
C      0.127400000000     0.270166666667     0.586566666667   
H      0.155866666667     0.275000000000     0.599233333333   
H      0.120666666667     0.242966666667     0.588700000000   
Cu     0.270003333333     0.252290000000     0.524196666667   
O      0.331833333333     0.253566666667     0.505333333333   
O      0.042333333333     0.241100000000     0.456666666667   
O      0.257900000000     0.231500000000     0.473800000000   
H      0.229033333333     0.227733333333     0.477700000000   
O      0.225800000000     0.161833333333     0.458700000000   
H      0.203433333333     0.158200000000     0.470933333333   
O      0.226200000000     0.142333333333     0.383433333333   
H      0.202766666667     0.141200000000     0.397233333333   
O      0.256200000000     0.215733333333     0.356100000000   
H      0.263066666667     0.196233333333     0.344100000000   
C      0.004766666667     0.240100000000     0.473266666667   
C      0.299333333333     0.219400000000     0.454333333333   
C      0.306500000000     0.175733333333     0.458900000000   
H      0.001833333333     0.168433333333     0.447633333333   
H      0.308100000000     0.169466666667     0.484966666667   
C      0.268100000000     0.153000000000     0.441066666667   
H      0.274300000000     0.125433333333     0.443400000000   
C      0.262933333333     0.163500000000     0.400033333333   
H      0.291066666667     0.156200000000     0.387366666667   
C      0.256200000000     0.206666666667     0.394800000000   
H      0.226900000000     0.214166666667     0.405466666667   
C      0.294066666667     0.229833333333     0.413433333333   
H      0.322533333333     0.225000000000     0.400766666667   
H      0.287333333333     0.257033333333     0.411300000000   
Cu     0.063330000000     0.085623333333     0.975803333333   
O      0.001500000000     0.086900000000     0.994666666667   
O      0.291000000000     0.074433333333     0.710000000000   
O      0.075433333333     0.064833333333     0.692866666667   
H      0.104300000000     0.061066666667     0.688966666667   
O      0.107533333333     0.328500000000     0.707966666667   
H      0.129900000000     0.324866666667     0.695733333333   
O      0.107133333333     0.309000000000     0.783233333333   
H      0.130566666667     0.307866666667     0.769433333333   
O      0.077133333333     0.049066666667     0.810566666667   
H      0.070266666667     0.029566666667     0.822566666667   
C      0.328566666667     0.073433333333     0.693400000000   
C      0.034000000000     0.052733333333     0.712333333333   
C      0.026833333333     0.009066666667     0.707766666667   
H      0.331500000000     0.001766666667     0.719033333333   
H      0.025233333333     0.002800000000     0.681700000000   
C      0.065233333333     0.319666666667     0.725600000000   
H      0.059033333333     0.292100000000     0.723266666667   
C      0.070400000000     0.330166666667     0.766633333333   
H      0.042266666667     0.322866666667     0.779300000000   
C      0.077133333333     0.040000000000     0.771866666667   
H      0.106433333333     0.047500000000     0.761200000000   
C      0.039266666667     0.063166666667     0.753233333333   
H      0.010800000000     0.058333333333     0.765900000000   
H      0.046000000000     0.090366666667     0.755366666667   
Cu     0.229996666667     0.081043333333     0.690863333333   
O      0.168166666667     0.079766666667     0.672000000000   
O      0.124333333333     0.092233333333     0.956666666667   
O      0.242100000000     0.101833333333     0.973800000000   
H      0.270966666667     0.105600000000     0.977700000000   
O      0.274200000000     0.171500000000     0.958700000000   
H      0.296566666667     0.175133333333     0.970933333333   
O      0.273800000000     0.191000000000     0.883433333333   
H      0.297233333333     0.192133333333     0.897233333333   
O      0.243800000000     0.117600000000     0.856100000000   
H      0.236933333333     0.137100000000     0.844100000000   
C      0.161900000000     0.093233333333     0.973266666667   
C      0.200666666667     0.113933333333     0.954333333333   
C      0.193500000000     0.157600000000     0.958900000000   
H      0.164833333333     0.164900000000     0.947633333333   
H      0.191900000000     0.163866666667     0.984966666667   
C      0.231900000000     0.180333333333     0.941066666667   
H      0.225700000000     0.207900000000     0.943400000000   
C      0.237066666667     0.169833333333     0.900033333333   
H      0.208933333333     0.177133333333     0.887366666667   
C      0.243800000000     0.126666666667     0.894800000000   
H      0.273100000000     0.119166666667     0.905466666667   
C      0.205933333333     0.103500000000     0.913433333333   
H      0.177466666667     0.108333333333     0.900766666667   
H      0.212666666667     0.076300000000     0.911300000000   
Cu     0.103336666667     0.247710000000     0.809136666667   
O      0.165166666667     0.246433333333     0.828000000000   
O      0.209000000000     0.258900000000     0.876666666667   
O      0.091233333333     0.268500000000     0.859533333333   
H      0.062366666667     0.272266666667     0.855633333333   
O      0.059133333333     0.004833333333     0.874633333333   
H      0.036766666667     0.008466666667     0.862400000000   
O      0.059533333333     0.024333333333     0.949900000000   
H      0.036100000000     0.025466666667     0.936100000000   
O      0.089533333333     0.284266666667     0.977233333333   
H      0.096400000000     0.303766666667     0.989233333333   
C      0.171433333333     0.259900000000     0.860066666667   
C      0.132666666667     0.280600000000     0.879000000000   
C      0.139833333333     0.324266666667     0.874433333333   
H      0.168500000000     0.331566666667     0.885700000000   
H      0.141433333333     0.330533333333     0.848366666667   
C      0.101433333333     0.013666666667     0.892266666667   
H      0.107633333333     0.041233333333     0.889933333333   
C      0.096266666667     0.003166666667     0.933300000000   
H      0.124400000000     0.010466666667     0.945966666667   
C      0.089533333333     0.293333333333     0.938533333333   
H      0.060233333333     0.285833333333     0.927866666667   
C      0.127400000000     0.270166666667     0.919900000000   
H      0.155866666667     0.275000000000     0.932566666667   
H      0.120666666667     0.242966666667     0.922033333333   
Cu     0.270003333333     0.252290000000     0.857530000000   
O      0.331833333333     0.253566666667     0.838666666667   
O      0.042333333333     0.241100000000     0.790000000000   
O      0.257900000000     0.231500000000     0.807133333333   
H      0.229033333333     0.227733333333     0.811033333333   
O      0.225800000000     0.161833333333     0.792033333333   
H      0.203433333333     0.158200000000     0.804266666667   
O      0.226200000000     0.142333333333     0.716766666667   
H      0.202766666667     0.141200000000     0.730566666667   
O      0.256200000000     0.215733333333     0.689433333333   
H      0.263066666667     0.196233333333     0.677433333333   
C      0.004766666667     0.240100000000     0.806600000000   
C      0.299333333333     0.219400000000     0.787666666667   
C      0.306500000000     0.175733333333     0.792233333333   
H      0.001833333333     0.168433333333     0.780966666667   
H      0.308100000000     0.169466666667     0.818300000000   
C      0.268100000000     0.153000000000     0.774400000000   
H      0.274300000000     0.125433333333     0.776733333333   
C      0.262933333333     0.163500000000     0.733366666667   
H      0.291066666667     0.156200000000     0.720700000000   
C      0.256200000000     0.206666666667     0.728133333333   
H      0.226900000000     0.214166666667     0.738800000000   
C      0.294066666667     0.229833333333     0.746766666667   
H      0.322533333333     0.225000000000     0.734100000000   
H      0.287333333333     0.257033333333     0.744633333333   
Cu     0.063330000000     0.418956666667     0.309136666667   
O      0.001500000000     0.420233333333     0.328000000000   
O      0.291000000000     0.407766666667     0.043333333333   
O      0.075433333333     0.398166666667     0.026200000000   
H      0.104300000000     0.394400000000     0.022300000000   
O      0.107533333333     0.661833333333     0.041300000000   
H      0.129900000000     0.658200000000     0.029066666667   
O      0.107133333333     0.642333333333     0.116566666667   
H      0.130566666667     0.641200000000     0.102766666667   
O      0.077133333333     0.382400000000     0.143900000000   
H      0.070266666667     0.362900000000     0.155900000000   
C      0.328566666667     0.406766666667     0.026733333333   
C      0.034000000000     0.386066666667     0.045666666667   
C      0.026833333333     0.342400000000     0.041100000000   
H      0.331500000000     0.335100000000     0.052366666667   
H      0.025233333333     0.336133333333     0.015033333333   
C      0.065233333333     0.653000000000     0.058933333333   
H      0.059033333333     0.625433333333     0.056600000000   
C      0.070400000000     0.663500000000     0.099966666667   
H      0.042266666667     0.656200000000     0.112633333333   
C      0.077133333333     0.373333333333     0.105200000000   
H      0.106433333333     0.380833333333     0.094533333333   
C      0.039266666667     0.396500000000     0.086566666667   
H      0.010800000000     0.391666666667     0.099233333333   
H      0.046000000000     0.423700000000     0.088700000000   
Cu     0.229996666667     0.414376666667     0.024196666667   
O      0.168166666667     0.413100000000     0.005333333333   
O      0.124333333333     0.425566666667     0.290000000000   
O      0.242100000000     0.435166666667     0.307133333333   
H      0.270966666667     0.438933333333     0.311033333333   
O      0.274200000000     0.504833333333     0.292033333333   
H      0.296566666667     0.508466666667     0.304266666667   
O      0.273800000000     0.524333333333     0.216766666667   
H      0.297233333333     0.525466666667     0.230566666667   
O      0.243800000000     0.450933333333     0.189433333333   
H      0.236933333333     0.470433333333     0.177433333333   
C      0.161900000000     0.426566666667     0.306600000000   
C      0.200666666667     0.447266666667     0.287666666667   
C      0.193500000000     0.490933333333     0.292233333333   
H      0.164833333333     0.498233333333     0.280966666667   
H      0.191900000000     0.497200000000     0.318300000000   
C      0.231900000000     0.513666666667     0.274400000000   
H      0.225700000000     0.541233333333     0.276733333333   
C      0.237066666667     0.503166666667     0.233366666667   
H      0.208933333333     0.510466666667     0.220700000000   
C      0.243800000000     0.460000000000     0.228133333333   
H      0.273100000000     0.452500000000     0.238800000000   
C      0.205933333333     0.436833333333     0.246766666667   
H      0.177466666667     0.441666666667     0.234100000000   
H      0.212666666667     0.409633333333     0.244633333333   
Cu     0.103336666667     0.581043333333     0.142470000000   
O      0.165166666667     0.579766666667     0.161333333333   
O      0.209000000000     0.592233333333     0.210000000000   
O      0.091233333333     0.601833333333     0.192866666667   
H      0.062366666667     0.605600000000     0.188966666667   
O      0.059133333333     0.338166666667     0.207966666667   
H      0.036766666667     0.341800000000     0.195733333333   
O      0.059533333333     0.357666666667     0.283233333333   
H      0.036100000000     0.358800000000     0.269433333333   
O      0.089533333333     0.617600000000     0.310566666667   
H      0.096400000000     0.637100000000     0.322566666667   
C      0.171433333333     0.593233333333     0.193400000000   
C      0.132666666667     0.613933333333     0.212333333333   
C      0.139833333333     0.657600000000     0.207766666667   
H      0.168500000000     0.664900000000     0.219033333333   
H      0.141433333333     0.663866666667     0.181700000000   
C      0.101433333333     0.347000000000     0.225600000000   
H      0.107633333333     0.374566666667     0.223266666667   
C      0.096266666667     0.336500000000     0.266633333333   
H      0.124400000000     0.343800000000     0.279300000000   
C      0.089533333333     0.626666666667     0.271866666667   
H      0.060233333333     0.619166666667     0.261200000000   
C      0.127400000000     0.603500000000     0.253233333333   
H      0.155866666667     0.608333333333     0.265900000000   
H      0.120666666667     0.576300000000     0.255366666667   
Cu     0.270003333333     0.585623333333     0.190863333333   
O      0.331833333333     0.586900000000     0.172000000000   
O      0.042333333333     0.574433333333     0.123333333333   
O      0.257900000000     0.564833333333     0.140466666667   
H      0.229033333333     0.561066666667     0.144366666667   
O      0.225800000000     0.495166666667     0.125366666667   
H      0.203433333333     0.491533333333     0.137600000000   
O      0.226200000000     0.475666666667     0.050100000000   
H      0.202766666667     0.474533333333     0.063900000000   
O      0.256200000000     0.549066666667     0.022766666667   
H      0.263066666667     0.529566666667     0.010766666667   
C      0.004766666667     0.573433333333     0.139933333333   
C      0.299333333333     0.552733333333     0.121000000000   
C      0.306500000000     0.509066666667     0.125566666667   
H      0.001833333333     0.501766666667     0.114300000000   
H      0.308100000000     0.502800000000     0.151633333333   
C      0.268100000000     0.486333333333     0.107733333333   
H      0.274300000000     0.458766666667     0.110066666667   
C      0.262933333333     0.496833333333     0.066700000000   
H      0.291066666667     0.489533333333     0.054033333333   
C      0.256200000000     0.540000000000     0.061466666667   
H      0.226900000000     0.547500000000     0.072133333333   
C      0.294066666667     0.563166666667     0.080100000000   
H      0.322533333333     0.558333333333     0.067433333333   
H      0.287333333333     0.590366666667     0.077966666667   
Cu     0.063330000000     0.418956666667     0.642470000000   
O      0.001500000000     0.420233333333     0.661333333333   
O      0.291000000000     0.407766666667     0.376666666667   
O      0.075433333333     0.398166666667     0.359533333333   
H      0.104300000000     0.394400000000     0.355633333333   
O      0.107533333333     0.661833333333     0.374633333333   
H      0.129900000000     0.658200000000     0.362400000000   
O      0.107133333333     0.642333333333     0.449900000000   
H      0.130566666667     0.641200000000     0.436100000000   
O      0.077133333333     0.382400000000     0.477233333333   
H      0.070266666667     0.362900000000     0.489233333333   
C      0.328566666667     0.406766666667     0.360066666667   
C      0.034000000000     0.386066666667     0.379000000000   
C      0.026833333333     0.342400000000     0.374433333333   
H      0.331500000000     0.335100000000     0.385700000000   
H      0.025233333333     0.336133333333     0.348366666667   
C      0.065233333333     0.653000000000     0.392266666667   
H      0.059033333333     0.625433333333     0.389933333333   
C      0.070400000000     0.663500000000     0.433300000000   
H      0.042266666667     0.656200000000     0.445966666667   
C      0.077133333333     0.373333333333     0.438533333333   
H      0.106433333333     0.380833333333     0.427866666667   
C      0.039266666667     0.396500000000     0.419900000000   
H      0.010800000000     0.391666666667     0.432566666667   
H      0.046000000000     0.423700000000     0.422033333333   
Cu     0.229996666667     0.414376666667     0.357530000000   
O      0.168166666667     0.413100000000     0.338666666667   
O      0.124333333333     0.425566666667     0.623333333333   
O      0.242100000000     0.435166666667     0.640466666667   
H      0.270966666667     0.438933333333     0.644366666667   
O      0.274200000000     0.504833333333     0.625366666667   
H      0.296566666667     0.508466666667     0.637600000000   
O      0.273800000000     0.524333333333     0.550100000000   
H      0.297233333333     0.525466666667     0.563900000000   
O      0.243800000000     0.450933333333     0.522766666667   
H      0.236933333333     0.470433333333     0.510766666667   
C      0.161900000000     0.426566666667     0.639933333333   
C      0.200666666667     0.447266666667     0.621000000000   
C      0.193500000000     0.490933333333     0.625566666667   
H      0.164833333333     0.498233333333     0.614300000000   
H      0.191900000000     0.497200000000     0.651633333333   
C      0.231900000000     0.513666666667     0.607733333333   
H      0.225700000000     0.541233333333     0.610066666667   
C      0.237066666667     0.503166666667     0.566700000000   
H      0.208933333333     0.510466666667     0.554033333333   
C      0.243800000000     0.460000000000     0.561466666667   
H      0.273100000000     0.452500000000     0.572133333333   
C      0.205933333333     0.436833333333     0.580100000000   
H      0.177466666667     0.441666666667     0.567433333333   
H      0.212666666667     0.409633333333     0.577966666667   
Cu     0.103336666667     0.581043333333     0.475803333333   
O      0.165166666667     0.579766666667     0.494666666667   
O      0.209000000000     0.592233333333     0.543333333333   
O      0.091233333333     0.601833333333     0.526200000000   
H      0.062366666667     0.605600000000     0.522300000000   
O      0.059133333333     0.338166666667     0.541300000000   
H      0.036766666667     0.341800000000     0.529066666667   
O      0.059533333333     0.357666666667     0.616566666667   
H      0.036100000000     0.358800000000     0.602766666667   
O      0.089533333333     0.617600000000     0.643900000000   
H      0.096400000000     0.637100000000     0.655900000000   
C      0.171433333333     0.593233333333     0.526733333333   
C      0.132666666667     0.613933333333     0.545666666667   
C      0.139833333333     0.657600000000     0.541100000000   
H      0.168500000000     0.664900000000     0.552366666667   
H      0.141433333333     0.663866666667     0.515033333333   
C      0.101433333333     0.347000000000     0.558933333333   
H      0.107633333333     0.374566666667     0.556600000000   
C      0.096266666667     0.336500000000     0.599966666667   
H      0.124400000000     0.343800000000     0.612633333333   
C      0.089533333333     0.626666666667     0.605200000000   
H      0.060233333333     0.619166666667     0.594533333333   