%BLOCK LATTICE_CART
ang    # angstrom units
  10.803800000000    0.000000000000     0.000000000000   
  0.000000000000     17.538700000000    0.000000000000   
  0.000000000000    -4.526524934081     17.140688227465  
%ENDBLOCK LATTICE_CART

%BLOCK POSITIONS_FRAC
Gd     0.205016666667     0.291555000000     0.493490000000   
Gd     0.191206666667     0.444165000000     0.006360000000   
Gd     0.038350000000     0.458445000000     0.256510000000   
Gd     0.024540000000     0.305835000000     0.243640000000   
Gd     0.128316666667     0.208445000000     0.006510000000   
Gd     0.142126666667     0.055835000000     0.493640000000   
Gd     0.294983333333     0.041555000000     0.243490000000   
Gd     0.308793333333     0.194165000000     0.256360000000   
H      0.246000000000     0.396850000000     0.389800000000   
H      0.284133333333     0.362700000000     0.330650000000   
H      0.224033333333     0.088050000000     0.341350000000   
H      0.192900000000     0.117050000000     0.405950000000   
H      0.125433333333     0.293800000000     0.337250000000   
H      0.152700000000     0.290750000000     0.401050000000   
H      0.149333333333     0.375000000000     0.487500000000   
H      0.079333333333     0.353150000000     0.360200000000   
H      0.117466666667     0.387300000000     0.419350000000   
H      0.057366666667     0.161950000000     0.408650000000   
H      0.026233333333     0.132950000000     0.344050000000   
H      0.292100000000     0.456200000000     0.412750000000   
H      0.319366666667     0.459250000000     0.348950000000   
H      0.316000000000     0.375000000000     0.262500000000   
H      0.087333333333     0.103150000000     0.110200000000   
H      0.049200000000     0.137300000000     0.169350000000   
H      0.109300000000     0.411950000000     0.158650000000   
H      0.140433333333     0.382950000000     0.094050000000   
H      0.207900000000     0.206200000000     0.162750000000   
H      0.180633333333     0.209250000000     0.098950000000   
H      0.184000000000     0.125000000000     0.012500000000   
H      0.254000000000     0.146850000000     0.139800000000   
H      0.215866666667     0.112700000000     0.080650000000   
H      0.275966666667     0.338050000000     0.091350000000   
H      0.307100000000     0.367050000000     0.155950000000   
H      0.041233333333     0.043800000000     0.087250000000   
H      0.013966666667     0.040750000000     0.151050000000   
H      0.017333333333     0.125000000000     0.237500000000   
C      0.206500000000     0.355300000000     0.436150000000   
C      0.230000000000     0.344450000000     0.399150000000   
C      0.247766666667     0.368950000000     0.380800000000   
C      0.269466666667     0.349500000000     0.346800000000   
C      0.266833333333     0.309750000000     0.339900000000   
C      0.284800000000     0.279050000000     0.307250000000   
C      0.279200000000     0.132750000000     0.308300000000   
C      0.255633333333     0.139400000000     0.345900000000   
C      0.229666666667     0.114000000000     0.356700000000   
C      0.211866666667     0.130650000000     0.393650000000   
C      0.224733333333     0.168250000000     0.409700000000   
C      0.211833333333     0.195250000000     0.446900000000   
C      0.053866666667     0.251050000000     0.305950000000   
C      0.078533333333     0.257000000000     0.342600000000   
C      0.113033333333     0.278800000000     0.353000000000   
C      0.128766666667     0.277000000000     0.389400000000   
C      0.105866666667     0.253500000000     0.405850000000   
C      0.111566666667     0.244700000000     0.444000000000   
C      0.039833333333     0.394700000000     0.313850000000   
C      0.063333333333     0.405550000000     0.350850000000   
C      0.081100000000     0.381050000000     0.369200000000   
C      0.102800000000     0.400500000000     0.403200000000   
C      0.100166666667     0.440250000000     0.410100000000   
C      0.118133333333     0.470950000000     0.442750000000   
C      0.112533333333     0.117250000000     0.441700000000   
C      0.088966666667     0.110600000000     0.404100000000   
C      0.063000000000     0.136000000000     0.393300000000   
C      0.045200000000     0.119350000000     0.356350000000   
C      0.058066666667     0.081750000000     0.340300000000   
C      0.045166666667     0.054750000000     0.303100000000   
C      0.220533333333     0.498950000000     0.444050000000   
C      0.245200000000     0.493000000000     0.407400000000   
C      0.279700000000     0.471200000000     0.397000000000   
C      0.295433333333     0.473000000000     0.360600000000   
C      0.272533333333     0.496500000000     0.344150000000   
C      0.278233333333     0.005300000000     0.306000000000   
C      0.126833333333     0.144700000000     0.063850000000   
C      0.103333333333     0.155550000000     0.100850000000   
C      0.085566666667     0.131050000000     0.119200000000   
C      0.063866666667     0.150500000000     0.153200000000   
C      0.066500000000     0.190250000000     0.160100000000   
C      0.048533333333     0.220950000000     0.192750000000   
C      0.054133333333     0.367250000000     0.191700000000   
C      0.077700000000     0.360600000000     0.154100000000   
C      0.103666666667     0.386000000000     0.143300000000   
C      0.121466666667     0.369350000000     0.106350000000   
C      0.108600000000     0.331750000000     0.090300000000   
C      0.121500000000     0.304750000000     0.053100000000   
C      0.279466666667     0.248950000000     0.194050000000   
C      0.254800000000     0.243000000000     0.157400000000   
C      0.220300000000     0.221200000000     0.147000000000   
C      0.204566666667     0.223000000000     0.110600000000   
C      0.227466666667     0.246500000000     0.094150000000   
C      0.221766666667     0.255300000000     0.056000000000   
C      0.293500000000     0.105300000000     0.186150000000   
C      0.270000000000     0.094450000000     0.149150000000   
C      0.252233333333     0.118950000000     0.130800000000   
C      0.230533333333     0.099500000000     0.096800000000   
C      0.233166666667     0.059750000000     0.089900000000   
C      0.215200000000     0.029050000000     0.057250000000   
C      0.220800000000     0.382750000000     0.058300000000   
C      0.244366666667     0.389400000000     0.095900000000   
C      0.270333333333     0.364000000000     0.106700000000   
C      0.288133333333     0.380650000000     0.143650000000   
C      0.275266666667     0.418250000000     0.159700000000   
C      0.288166666667     0.445250000000     0.196900000000   
C      0.112800000000     0.001050000000     0.055950000000   
C      0.088133333333     0.007000000000     0.092600000000   
C      0.053633333333     0.028800000000     0.103000000000   
C      0.037900000000     0.027000000000     0.139400000000   
C      0.060800000000     0.003500000000     0.155850000000   
C      0.055100000000     0.494700000000     0.194000000000   
S      0.238446666667     0.295810000000     0.375055000000   
S      0.259196666667     0.184015000000     0.379940000000   
S      0.064500000000     0.233220000000     0.377100000000   
S      0.071780000000     0.454190000000     0.374945000000   
S      0.092530000000     0.065985000000     0.370060000000   
S      0.231166666667     0.016780000000     0.372900000000   
S      0.094886666667     0.204190000000     0.124945000000   
S      0.074136666667     0.315985000000     0.120060000000   
S      0.268833333333     0.266780000000     0.122900000000   
S      0.261553333333     0.045810000000     0.125055000000   
S      0.240803333333     0.434015000000     0.129940000000   
S      0.102166666667     0.483220000000     0.127100000000   
O      0.191233333333     0.328100000000     0.449350000000   
O      0.202666666667     0.391150000000     0.451500000000   
O      0.274266666667     0.243950000000     0.304300000000   
O      0.309266666667     0.289800000000     0.284400000000   
O      0.303066666667     0.160050000000     0.304900000000   
O      0.272666666667     0.101300000000     0.283300000000   
O      0.225900000000     0.229350000000     0.455850000000   
O      0.185200000000     0.181750000000     0.467050000000   
O      0.027633333333     0.223950000000     0.299850000000   
O      0.062033333333     0.273700000000     0.284650000000   
O      0.085433333333     0.225100000000     0.456450000000   
O      0.145666666667     0.255450000000     0.463100000000   
O      0.131666666667     0.391650000000     0.002050000000   
O      0.024566666667     0.421900000000     0.300650000000   
O      0.036000000000     0.358850000000     0.298500000000   
O      0.107600000000     0.006050000000     0.445700000000   
O      0.142600000000     0.460200000000     0.465600000000   
O      0.136400000000     0.089950000000     0.445100000000   
O      0.106000000000     0.148700000000     0.466700000000   
O      0.059233333333     0.020650000000     0.294150000000   
O      0.018533333333     0.068250000000     0.282950000000   
O      0.194300000000     0.026050000000     0.450150000000   
O      0.228700000000     0.476300000000     0.465350000000   
O      0.252100000000     0.024900000000     0.293550000000   
O      0.312333333333     0.494550000000     0.286900000000   
O      0.298333333333     0.358350000000     0.247950000000   
O      0.142100000000     0.171900000000     0.050650000000   
O      0.130666666667     0.108850000000     0.048500000000   
O      0.059066666667     0.256050000000     0.195700000000   
O      0.024066666667     0.210200000000     0.215600000000   
O      0.030266666667     0.339950000000     0.195100000000   
O      0.060666666667     0.398700000000     0.216700000000   
O      0.107433333333     0.270650000000     0.044150000000   
O      0.148133333333     0.318250000000     0.032950000000   
O      0.305700000000     0.276050000000     0.200150000000   
O      0.271300000000     0.226300000000     0.215350000000   
O      0.247900000000     0.274900000000     0.043550000000   
O      0.187666666667     0.244550000000     0.036900000000   
O      0.201666666667     0.108350000000     0.497950000000   
O      0.308766666667     0.078100000000     0.199350000000   
O      0.297333333333     0.141150000000     0.201500000000   
O      0.225733333333     0.493950000000     0.054300000000   
O      0.190733333333     0.039800000000     0.034400000000   
O      0.196933333333     0.410050000000     0.054900000000   
O      0.227333333333     0.351300000000     0.033300000000   
O      0.274100000000     0.479350000000     0.205850000000   
O      0.314800000000     0.431750000000     0.217050000000   
O      0.139033333333     0.473950000000     0.049850000000   
O      0.104633333333     0.023700000000     0.034650000000   
O      0.081233333333     0.475100000000     0.206450000000   
O      0.021000000000     0.005450000000     0.213100000000   
O      0.035000000000     0.141650000000     0.252050000000   
Gd     0.205016666667     0.291555000000     0.993490000000   
Gd     0.191206666667     0.444165000000     0.506360000000   
Gd     0.038350000000     0.458445000000     0.756510000000   
Gd     0.024540000000     0.305835000000     0.743640000000   
Gd     0.128316666667     0.208445000000     0.506510000000   
Gd     0.142126666667     0.055835000000     0.993640000000   
Gd     0.294983333333     0.041555000000     0.743490000000   
Gd     0.308793333333     0.194165000000     0.756360000000   
H      0.246000000000     0.396850000000     0.889800000000   
H      0.284133333333     0.362700000000     0.830650000000   
H      0.224033333333     0.088050000000     0.841350000000   
H      0.192900000000     0.117050000000     0.905950000000   
H      0.125433333333     0.293800000000     0.837250000000   
H      0.152700000000     0.290750000000     0.901050000000   
H      0.149333333333     0.375000000000     0.987500000000   
H      0.079333333333     0.353150000000     0.860200000000   
H      0.117466666667     0.387300000000     0.919350000000   
H      0.057366666667     0.161950000000     0.908650000000   
H      0.026233333333     0.132950000000     0.844050000000   
H      0.292100000000     0.456200000000     0.912750000000   
H      0.319366666667     0.459250000000     0.848950000000   
H      0.316000000000     0.375000000000     0.762500000000   
H      0.087333333333     0.103150000000     0.610200000000   
H      0.049200000000     0.137300000000     0.669350000000   
H      0.109300000000     0.411950000000     0.658650000000   
H      0.140433333333     0.382950000000     0.594050000000   
H      0.207900000000     0.206200000000     0.662750000000   
H      0.180633333333     0.209250000000     0.598950000000   
H      0.184000000000     0.125000000000     0.512500000000   
H      0.254000000000     0.146850000000     0.639800000000   
H      0.215866666667     0.112700000000     0.580650000000   
H      0.275966666667     0.338050000000     0.591350000000   
H      0.307100000000     0.367050000000     0.655950000000   
H      0.041233333333     0.043800000000     0.587250000000   
H      0.013966666667     0.040750000000     0.651050000000   
H      0.017333333333     0.125000000000     0.737500000000   
C      0.206500000000     0.355300000000     0.936150000000   
C      0.230000000000     0.344450000000     0.899150000000   
C      0.247766666667     0.368950000000     0.880800000000   
C      0.269466666667     0.349500000000     0.846800000000   
C      0.266833333333     0.309750000000     0.839900000000   
C      0.284800000000     0.279050000000     0.807250000000   
C      0.279200000000     0.132750000000     0.808300000000   
C      0.255633333333     0.139400000000     0.845900000000   
C      0.229666666667     0.114000000000     0.856700000000   
C      0.211866666667     0.130650000000     0.893650000000   
C      0.224733333333     0.168250000000     0.909700000000   
C      0.211833333333     0.195250000000     0.946900000000   
C      0.053866666667     0.251050000000     0.805950000000   
C      0.078533333333     0.257000000000     0.842600000000   
C      0.113033333333     0.278800000000     0.853000000000   
C      0.128766666667     0.277000000000     0.889400000000   
C      0.105866666667     0.253500000000     0.905850000000   
C      0.111566666667     0.244700000000     0.944000000000   
C      0.039833333333     0.394700000000     0.813850000000   
C      0.063333333333     0.405550000000     0.850850000000   
C      0.081100000000     0.381050000000     0.869200000000   
C      0.102800000000     0.400500000000     0.903200000000   
C      0.100166666667     0.440250000000     0.910100000000   
C      0.118133333333     0.470950000000     0.942750000000   
C      0.112533333333     0.117250000000     0.941700000000   
C      0.088966666667     0.110600000000     0.904100000000   
C      0.063000000000     0.136000000000     0.893300000000   
C      0.045200000000     0.119350000000     0.856350000000   
C      0.058066666667     0.081750000000     0.840300000000   
C      0.045166666667     0.054750000000     0.803100000000   
C      0.220533333333     0.498950000000     0.944050000000   
C      0.245200000000     0.493000000000     0.907400000000   
C      0.279700000000     0.471200000000     0.897000000000   
C      0.295433333333     0.473000000000     0.860600000000   
C      0.272533333333     0.496500000000     0.844150000000   
C      0.278233333333     0.005300000000     0.806000000000   
C      0.126833333333     0.144700000000     0.563850000000   
C      0.103333333333     0.155550000000     0.600850000000   
C      0.085566666667     0.131050000000     0.619200000000   
C      0.063866666667     0.150500000000     0.653200000000   
C      0.066500000000     0.190250000000     0.660100000000   
C      0.048533333333     0.220950000000     0.692750000000   
C      0.054133333333     0.367250000000     0.691700000000   
C      0.077700000000     0.360600000000     0.654100000000   
C      0.103666666667     0.386000000000     0.643300000000   
C      0.121466666667     0.369350000000     0.606350000000   
C      0.108600000000     0.331750000000     0.590300000000   
C      0.121500000000     0.304750000000     0.553100000000   
C      0.279466666667     0.248950000000     0.694050000000   
C      0.254800000000     0.243000000000     0.657400000000   
C      0.220300000000     0.221200000000     0.647000000000   
C      0.204566666667     0.223000000000     0.610600000000   
C      0.227466666667     0.246500000000     0.594150000000   
C      0.221766666667     0.255300000000     0.556000000000   
C      0.293500000000     0.105300000000     0.686150000000   
C      0.270000000000     0.094450000000     0.649150000000   
C      0.252233333333     0.118950000000     0.630800000000   
C      0.230533333333     0.099500000000     0.596800000000   
C      0.233166666667     0.059750000000     0.589900000000   
C      0.215200000000     0.029050000000     0.557250000000   
C      0.220800000000     0.382750000000     0.558300000000   
C      0.244366666667     0.389400000000     0.595900000000   
C      0.270333333333     0.364000000000     0.606700000000   
C      0.288133333333     0.380650000000     0.643650000000   
C      0.275266666667     0.418250000000     0.659700000000   
C      0.288166666667     0.445250000000     0.696900000000   
C      0.112800000000     0.001050000000     0.555950000000   
C      0.088133333333     0.007000000000     0.592600000000   
C      0.053633333333     0.028800000000     0.603000000000   
C      0.037900000000     0.027000000000     0.639400000000   
C      0.060800000000     0.003500000000     0.655850000000   
C      0.055100000000     0.494700000000     0.694000000000   
S      0.238446666667     0.295810000000     0.875055000000   
S      0.259196666667     0.184015000000     0.879940000000   
S      0.064500000000     0.233220000000     0.877100000000   
S      0.071780000000     0.454190000000     0.874945000000   
S      0.092530000000     0.065985000000     0.870060000000   
S      0.231166666667     0.016780000000     0.872900000000   
S      0.094886666667     0.204190000000     0.624945000000   
S      0.074136666667     0.315985000000     0.620060000000   
S      0.268833333333     0.266780000000     0.622900000000   
S      0.261553333333     0.045810000000     0.625055000000   
S      0.240803333333     0.434015000000     0.629940000000   
S      0.102166666667     0.483220000000     0.627100000000   
O      0.191233333333     0.328100000000     0.949350000000   
O      0.202666666667     0.391150000000     0.951500000000   
O      0.274266666667     0.243950000000     0.804300000000   
O      0.309266666667     0.289800000000     0.784400000000   
O      0.303066666667     0.160050000000     0.804900000000   
O      0.272666666667     0.101300000000     0.783300000000   
O      0.225900000000     0.229350000000     0.955850000000   
O      0.185200000000     0.181750000000     0.967050000000   
O      0.027633333333     0.223950000000     0.799850000000   
O      0.062033333333     0.273700000000     0.784650000000   
O      0.085433333333     0.225100000000     0.956450000000   
O      0.145666666667     0.255450000000     0.963100000000   
O      0.131666666667     0.391650000000     0.502050000000   
O      0.024566666667     0.421900000000     0.800650000000   
O      0.036000000000     0.358850000000     0.798500000000   
O      0.107600000000     0.006050000000     0.945700000000   
O      0.142600000000     0.460200000000     0.965600000000   
O      0.136400000000     0.089950000000     0.945100000000   
O      0.106000000000     0.148700000000     0.966700000000   
O      0.059233333333     0.020650000000     0.794150000000   
O      0.018533333333     0.068250000000     0.782950000000   
O      0.194300000000     0.026050000000     0.950150000000   
O      0.228700000000     0.476300000000     0.965350000000   
O      0.252100000000     0.024900000000     0.793550000000   
O      0.312333333333     0.494550000000     0.786900000000   
O      0.298333333333     0.358350000000     0.747950000000   
O      0.142100000000     0.171900000000     0.550650000000   
O      0.130666666667     0.108850000000     0.548500000000   
O      0.059066666667     0.256050000000     0.695700000000   
O      0.024066666667     0.210200000000     0.715600000000   
O      0.030266666667     0.339950000000     0.695100000000   
O      0.060666666667     0.398700000000     0.716700000000   
O      0.107433333333     0.270650000000     0.544150000000   
O      0.148133333333     0.318250000000     0.532950000000   
O      0.305700000000     0.276050000000     0.700150000000   
O      0.271300000000     0.226300000000     0.715350000000   
O      0.247900000000     0.274900000000     0.543550000000   
O      0.187666666667     0.244550000000     0.536900000000   
O      0.201666666667     0.108350000000     0.997950000000   
O      0.308766666667     0.078100000000     0.699350000000   
O      0.297333333333     0.141150000000     0.701500000000   
O      0.225733333333     0.493950000000     0.554300000000   
O      0.190733333333     0.039800000000     0.534400000000   
O      0.196933333333     0.410050000000     0.554900000000   
O      0.227333333333     0.351300000000     0.533300000000   
O      0.274100000000     0.479350000000     0.705850000000   
O      0.314800000000     0.431750000000     0.717050000000   
O      0.139033333333     0.473950000000     0.549850000000   
O      0.104633333333     0.023700000000     0.534650000000   
O      0.081233333333     0.475100000000     0.706450000000   
O      0.021000000000     0.005450000000     0.713100000000   
O      0.035000000000     0.141650000000     0.752050000000   
Gd     0.205016666667     0.791555000000     0.493490000000   
Gd     0.191206666667     0.944165000000     0.006360000000   
Gd     0.038350000000     0.958445000000     0.256510000000   
Gd     0.024540000000     0.805835000000     0.243640000000   
Gd     0.128316666667     0.708445000000     0.006510000000   
Gd     0.142126666667     0.555835000000     0.493640000000   
Gd     0.294983333333     0.541555000000     0.243490000000   
Gd     0.308793333333     0.694165000000     0.256360000000   
H      0.246000000000     0.896850000000     0.389800000000   
H      0.284133333333     0.862700000000     0.330650000000   
H      0.224033333333     0.588050000000     0.341350000000   
H      0.192900000000     0.617050000000     0.405950000000   
H      0.125433333333     0.793800000000     0.337250000000   
H      0.152700000000     0.790750000000     0.401050000000   
H      0.149333333333     0.875000000000     0.487500000000   
H      0.079333333333     0.853150000000     0.360200000000   
H      0.117466666667     0.887300000000     0.419350000000   
H      0.057366666667     0.661950000000     0.408650000000   
H      0.026233333333     0.632950000000     0.344050000000   
H      0.292100000000     0.956200000000     0.412750000000   
H      0.319366666667     0.959250000000     0.348950000000   
H      0.316000000000     0.875000000000     0.262500000000   
H      0.087333333333     0.603150000000     0.110200000000   
H      0.049200000000     0.637300000000     0.169350000000   
H      0.109300000000     0.911950000000     0.158650000000   
H      0.140433333333     0.882950000000     0.094050000000   
H      0.207900000000     0.706200000000     0.162750000000   
H      0.180633333333     0.709250000000     0.098950000000   
H      0.184000000000     0.625000000000     0.012500000000   
H      0.254000000000     0.646850000000     0.139800000000   
H      0.215866666667     0.612700000000     0.080650000000   
H      0.275966666667     0.838050000000     0.091350000000   
H      0.307100000000     0.867050000000     0.155950000000   
H      0.041233333333     0.543800000000     0.087250000000   
H      0.013966666667     0.540750000000     0.151050000000   
H      0.017333333333     0.625000000000     0.237500000000   
C      0.206500000000     0.855300000000     0.436150000000   
C      0.230000000000     0.844450000000     0.399150000000   
C      0.247766666667     0.868950000000     0.380800000000   
C      0.269466666667     0.849500000000     0.346800000000   
C      0.266833333333     0.809750000000     0.339900000000   
C      0.284800000000     0.779050000000     0.307250000000   
C      0.279200000000     0.632750000000     0.308300000000   
C      0.255633333333     0.639400000000     0.345900000000   
C      0.229666666667     0.614000000000     0.356700000000   
C      0.211866666667     0.630650000000     0.393650000000   
C      0.224733333333     0.668250000000     0.409700000000   
C      0.211833333333     0.695250000000     0.446900000000   
C      0.053866666667     0.751050000000     0.305950000000   
C      0.078533333333     0.757000000000     0.342600000000   
C      0.113033333333     0.778800000000     0.353000000000   
C      0.128766666667     0.777000000000     0.389400000000   
C      0.105866666667     0.753500000000     0.405850000000   
C      0.111566666667     0.744700000000     0.444000000000   
C      0.039833333333     0.894700000000     0.313850000000   
C      0.063333333333     0.905550000000     0.350850000000   
C      0.081100000000     0.881050000000     0.369200000000   
C      0.102800000000     0.900500000000     0.403200000000   
C      0.100166666667     0.940250000000     0.410100000000   
C      0.118133333333     0.970950000000     0.442750000000   
C      0.112533333333     0.617250000000     0.441700000000   
C      0.088966666667     0.610600000000     0.404100000000   
C      0.063000000000     0.636000000000     0.393300000000   
C      0.045200000000     0.619350000000     0.356350000000   
C      0.058066666667     0.581750000000     0.340300000000   
C      0.045166666667     0.554750000000     0.303100000000   
C      0.220533333333     0.998950000000     0.444050000000   
C      0.245200000000     0.993000000000     0.407400000000   
C      0.279700000000     0.971200000000     0.397000000000   
C      0.295433333333     0.973000000000     0.360600000000   
C      0.272533333333     0.996500000000     0.344150000000   
C      0.278233333333     0.505300000000     0.306000000000   
C      0.126833333333     0.644700000000     0.063850000000   
C      0.103333333333     0.655550000000     0.100850000000   
C      0.085566666667     0.631050000000     0.119200000000   
C      0.063866666667     0.650500000000     0.153200000000   
C      0.066500000000     0.690250000000     0.160100000000   
C      0.048533333333     0.720950000000     0.192750000000   
C      0.054133333333     0.867250000000     0.191700000000   
C      0.077700000000     0.860600000000     0.154100000000   
C      0.103666666667     0.886000000000     0.143300000000   
C      0.121466666667     0.869350000000     0.106350000000   
C      0.108600000000     0.831750000000     0.090300000000   
C      0.121500000000     0.804750000000     0.053100000000   
C      0.279466666667     0.748950000000     0.194050000000   
C      0.254800000000     0.743000000000     0.157400000000   
C      0.220300000000     0.721200000000     0.147000000000   
C      0.204566666667     0.723000000000     0.110600000000   
C      0.227466666667     0.746500000000     0.094150000000   
C      0.221766666667     0.755300000000     0.056000000000   
C      0.293500000000     0.605300000000     0.186150000000   
C      0.270000000000     0.594450000000     0.149150000000   
C      0.252233333333     0.618950000000     0.130800000000   
C      0.230533333333     0.599500000000     0.096800000000   
C      0.233166666667     0.559750000000     0.089900000000   
C      0.215200000000     0.529050000000     0.057250000000   
C      0.220800000000     0.882750000000     0.058300000000   
C      0.244366666667     0.889400000000     0.095900000000   
C      0.270333333333     0.864000000000     0.106700000000   
C      0.288133333333     0.880650000000     0.143650000000   
C      0.275266666667     0.918250000000     0.159700000000   
C      0.288166666667     0.945250000000     0.196900000000   
C      0.112800000000     0.501050000000     0.055950000000   
C      0.088133333333     0.507000000000     0.092600000000   
C      0.053633333333     0.528800000000     0.103000000000   
C      0.037900000000     0.527000000000     0.139400000000   
C      0.060800000000     0.503500000000     0.155850000000   
C      0.055100000000     0.994700000000     0.194000000000   
S      0.238446666667     0.795810000000     0.375055000000   
S      0.259196666667     0.684015000000     0.379940000000   
S      0.064500000000     0.733220000000     0.377100000000   
S      0.071780000000     0.954190000000     0.374945000000   
S      0.092530000000     0.565985000000     0.370060000000   
S      0.231166666667     0.516780000000     0.372900000000   
S      0.094886666667     0.704190000000     0.124945000000   
S      0.074136666667     0.815985000000     0.120060000000   
S      0.268833333333     0.766780000000     0.122900000000   
S      0.261553333333     0.545810000000     0.125055000000   
S      0.240803333333     0.934015000000     0.129940000000   
S      0.102166666667     0.983220000000     0.127100000000   
O      0.191233333333     0.828100000000     0.449350000000   
O      0.202666666667     0.891150000000     0.451500000000   
O      0.274266666667     0.743950000000     0.304300000000   
O      0.309266666667     0.789800000000     0.284400000000   
O      0.303066666667     0.660050000000     0.304900000000   
O      0.272666666667     0.601300000000     0.283300000000   
O      0.225900000000     0.729350000000     0.455850000000   
O      0.185200000000     0.681750000000     0.467050000000   