%BLOCK LATTICE_CART
ang    # angstrom units
  9.532100000000     0.000000000000     0.000000000000   
 -1.497918491314     9.413669348526     0.000000000000   
 -0.772311913760    -0.904919683754     15.405130823002  
%ENDBLOCK LATTICE_CART

%BLOCK POSITIONS_FRAC
Er     0.003620000000     0.329713333333     0.375000000000   
Er     0.329713333333     0.003620000000     0.125000000000   
P      0.117976666667     0.014970000000     0.322980000000   
P      0.217216666667     0.325423333333     0.327145000000   
P      0.318363333333     0.215356666667     0.427020000000   
P      0.007910000000     0.116116666667     0.422855000000   
P      0.215356666667     0.318363333333     0.177020000000   
P      0.116116666667     0.007910000000     0.172855000000   
P      0.014970000000     0.117976666667     0.072980000000   
P      0.325423333333     0.217216666667     0.077145000000   
H      0.140133333333     0.276533333333     0.366250000000   
H      0.157333333333     0.053000000000     0.407150000000   
H      0.210533333333     0.042066666667     0.408250000000   
H      0.193000000000     0.075066666667     0.372500000000   
H      0.056800000000     0.193200000000     0.383750000000   
H      0.280333333333     0.176000000000     0.342850000000   
H      0.291266666667     0.122800000000     0.341750000000   
H      0.258266666667     0.140333333333     0.377500000000   
H      0.193200000000     0.056800000000     0.133750000000   
H      0.176000000000     0.280333333333     0.092850000000   
H      0.122800000000     0.291266666667     0.091750000000   
H      0.140333333333     0.258266666667     0.127500000000   
H      0.276533333333     0.140133333333     0.116250000000   
H      0.053000000000     0.157333333333     0.157150000000   
H      0.042066666667     0.210533333333     0.158250000000   
H      0.075066666667     0.193000000000     0.122500000000   
Ru     0.181893333333     0.040546666667     0.250950000000   
Ru     0.292786666667     0.151440000000     0.499050000000   
Ru     0.151440000000     0.292786666667     0.249050000000   
Ru     0.040546666667     0.181893333333     0.000950000000   
C      0.168233333333     0.005566666667     0.359850000000   
C      0.183533333333     0.047400000000     0.389350000000   
C      0.327766666667     0.165100000000     0.390150000000   
C      0.285933333333     0.149800000000     0.360650000000   
C      0.165100000000     0.327766666667     0.140150000000   
C      0.149800000000     0.285933333333     0.110650000000   
C      0.005566666667     0.168233333333     0.109850000000   
C      0.047400000000     0.183533333333     0.139350000000   
O      0.136200000000     0.055933333333     0.294800000000   
O      0.102966666667     0.303233333333     0.293050000000   
O      0.077700000000     0.024700000000     0.349750000000   
O      0.230433333333     0.034766666667     0.299350000000   
O      0.198133333333     0.280600000000     0.297100000000   
O      0.257533333333     0.318333333333     0.357400000000   
O      0.150233333333     0.300033333333     0.383700000000   
O      0.277400000000     0.197133333333     0.455200000000   
O      0.030100000000     0.230366666667     0.456950000000   
O      0.308633333333     0.255633333333     0.400250000000   
O      0.298566666667     0.102900000000     0.450650000000   
O      0.052733333333     0.135200000000     0.452900000000   
O      0.015000000000     0.075800000000     0.392600000000   
O      0.033300000000     0.183100000000     0.366300000000   
O      0.197133333333     0.277400000000     0.205200000000   
O      0.230366666667     0.030100000000     0.206950000000   
O      0.255633333333     0.308633333333     0.150250000000   
O      0.102900000000     0.298566666667     0.200650000000   
O      0.135200000000     0.052733333333     0.202900000000   
O      0.075800000000     0.015000000000     0.142600000000   
O      0.183100000000     0.033300000000     0.116300000000   
O      0.055933333333     0.136200000000     0.044800000000   
O      0.303233333333     0.102966666667     0.043050000000   
O      0.024700000000     0.077700000000     0.099750000000   
O      0.034766666667     0.230433333333     0.049350000000   
O      0.280600000000     0.198133333333     0.047100000000   
O      0.318333333333     0.257533333333     0.107400000000   
O      0.300033333333     0.150233333333     0.133700000000   
Er     0.003620000000     0.329713333333     0.875000000000   
Er     0.329713333333     0.003620000000     0.625000000000   
P      0.117976666667     0.014970000000     0.822980000000   
P      0.217216666667     0.325423333333     0.827145000000   
P      0.318363333333     0.215356666667     0.927020000000   
P      0.007910000000     0.116116666667     0.922855000000   
P      0.215356666667     0.318363333333     0.677020000000   
P      0.116116666667     0.007910000000     0.672855000000   
P      0.014970000000     0.117976666667     0.572980000000   
P      0.325423333333     0.217216666667     0.577145000000   
H      0.140133333333     0.276533333333     0.866250000000   
H      0.157333333333     0.053000000000     0.907150000000   
H      0.210533333333     0.042066666667     0.908250000000   
H      0.193000000000     0.075066666667     0.872500000000   
H      0.056800000000     0.193200000000     0.883750000000   
H      0.280333333333     0.176000000000     0.842850000000   
H      0.291266666667     0.122800000000     0.841750000000   
H      0.258266666667     0.140333333333     0.877500000000   
H      0.193200000000     0.056800000000     0.633750000000   
H      0.176000000000     0.280333333333     0.592850000000   
H      0.122800000000     0.291266666667     0.591750000000   
H      0.140333333333     0.258266666667     0.627500000000   
H      0.276533333333     0.140133333333     0.616250000000   
H      0.053000000000     0.157333333333     0.657150000000   
H      0.042066666667     0.210533333333     0.658250000000   
H      0.075066666667     0.193000000000     0.622500000000   
Ru     0.181893333333     0.040546666667     0.750950000000   
Ru     0.292786666667     0.151440000000     0.999050000000   
Ru     0.151440000000     0.292786666667     0.749050000000   
Ru     0.040546666667     0.181893333333     0.500950000000   
C      0.168233333333     0.005566666667     0.859850000000   
C      0.183533333333     0.047400000000     0.889350000000   
C      0.327766666667     0.165100000000     0.890150000000   
C      0.285933333333     0.149800000000     0.860650000000   
C      0.165100000000     0.327766666667     0.640150000000   
C      0.149800000000     0.285933333333     0.610650000000   
C      0.005566666667     0.168233333333     0.609850000000   
C      0.047400000000     0.183533333333     0.639350000000   
O      0.136200000000     0.055933333333     0.794800000000   
O      0.102966666667     0.303233333333     0.793050000000   
O      0.077700000000     0.024700000000     0.849750000000   
O      0.230433333333     0.034766666667     0.799350000000   
O      0.198133333333     0.280600000000     0.797100000000   
O      0.257533333333     0.318333333333     0.857400000000   
O      0.150233333333     0.300033333333     0.883700000000   
O      0.277400000000     0.197133333333     0.955200000000   
O      0.030100000000     0.230366666667     0.956950000000   
O      0.308633333333     0.255633333333     0.900250000000   
O      0.298566666667     0.102900000000     0.950650000000   
O      0.052733333333     0.135200000000     0.952900000000   
O      0.015000000000     0.075800000000     0.892600000000   
O      0.033300000000     0.183100000000     0.866300000000   
O      0.197133333333     0.277400000000     0.705200000000   
O      0.230366666667     0.030100000000     0.706950000000   
O      0.255633333333     0.308633333333     0.650250000000   
O      0.102900000000     0.298566666667     0.700650000000   
O      0.135200000000     0.052733333333     0.702900000000   
O      0.075800000000     0.015000000000     0.642600000000   
O      0.183100000000     0.033300000000     0.616300000000   
O      0.055933333333     0.136200000000     0.544800000000   
O      0.303233333333     0.102966666667     0.543050000000   
O      0.024700000000     0.077700000000     0.599750000000   
O      0.034766666667     0.230433333333     0.549350000000   
O      0.280600000000     0.198133333333     0.547100000000   
O      0.318333333333     0.257533333333     0.607400000000   
O      0.300033333333     0.150233333333     0.633700000000   
Er     0.003620000000     0.663046666667     0.375000000000   
Er     0.329713333333     0.336953333333     0.125000000000   
P      0.117976666667     0.348303333333     0.322980000000   
P      0.217216666667     0.658756666667     0.327145000000   
P      0.318363333333     0.548690000000     0.427020000000   
P      0.007910000000     0.449450000000     0.422855000000   
P      0.215356666667     0.651696666667     0.177020000000   
P      0.116116666667     0.341243333333     0.172855000000   
P      0.014970000000     0.451310000000     0.072980000000   
P      0.325423333333     0.550550000000     0.077145000000   
H      0.140133333333     0.609866666667     0.366250000000   
H      0.157333333333     0.386333333333     0.407150000000   
H      0.210533333333     0.375400000000     0.408250000000   
H      0.193000000000     0.408400000000     0.372500000000   
H      0.056800000000     0.526533333333     0.383750000000   
H      0.280333333333     0.509333333333     0.342850000000   
H      0.291266666667     0.456133333333     0.341750000000   
H      0.258266666667     0.473666666667     0.377500000000   
H      0.193200000000     0.390133333333     0.133750000000   
H      0.176000000000     0.613666666667     0.092850000000   
H      0.122800000000     0.624600000000     0.091750000000   
H      0.140333333333     0.591600000000     0.127500000000   
H      0.276533333333     0.473466666667     0.116250000000   
H      0.053000000000     0.490666666667     0.157150000000   
H      0.042066666667     0.543866666667     0.158250000000   
H      0.075066666667     0.526333333333     0.122500000000   
Ru     0.181893333333     0.373880000000     0.250950000000   
Ru     0.292786666667     0.484773333333     0.499050000000   
Ru     0.151440000000     0.626120000000     0.249050000000   
Ru     0.040546666667     0.515226666667     0.000950000000   
C      0.168233333333     0.338900000000     0.359850000000   
C      0.183533333333     0.380733333333     0.389350000000   
C      0.327766666667     0.498433333333     0.390150000000   
C      0.285933333333     0.483133333333     0.360650000000   
C      0.165100000000     0.661100000000     0.140150000000   
C      0.149800000000     0.619266666667     0.110650000000   
C      0.005566666667     0.501566666667     0.109850000000   
C      0.047400000000     0.516866666667     0.139350000000   
O      0.136200000000     0.389266666667     0.294800000000   
O      0.102966666667     0.636566666667     0.293050000000   
O      0.077700000000     0.358033333333     0.349750000000   
O      0.230433333333     0.368100000000     0.299350000000   
O      0.198133333333     0.613933333333     0.297100000000   
O      0.257533333333     0.651666666667     0.357400000000   
O      0.150233333333     0.633366666667     0.383700000000   
O      0.277400000000     0.530466666667     0.455200000000   
O      0.030100000000     0.563700000000     0.456950000000   
O      0.308633333333     0.588966666667     0.400250000000   
O      0.298566666667     0.436233333333     0.450650000000   
O      0.052733333333     0.468533333333     0.452900000000   
O      0.015000000000     0.409133333333     0.392600000000   
O      0.033300000000     0.516433333333     0.366300000000   
O      0.197133333333     0.610733333333     0.205200000000   
O      0.230366666667     0.363433333333     0.206950000000   
O      0.255633333333     0.641966666667     0.150250000000   
O      0.102900000000     0.631900000000     0.200650000000   
O      0.135200000000     0.386066666667     0.202900000000   
O      0.075800000000     0.348333333333     0.142600000000   
O      0.183100000000     0.366633333333     0.116300000000   
O      0.055933333333     0.469533333333     0.044800000000   
O      0.303233333333     0.436300000000     0.043050000000   
O      0.024700000000     0.411033333333     0.099750000000   
O      0.034766666667     0.563766666667     0.049350000000   
O      0.280600000000     0.531466666667     0.047100000000   
O      0.318333333333     0.590866666667     0.107400000000   
O      0.300033333333     0.483566666667     0.133700000000   
Er     0.003620000000     0.663046666667     0.875000000000   
Er     0.329713333333     0.336953333333     0.625000000000   
P      0.117976666667     0.348303333333     0.822980000000   
P      0.217216666667     0.658756666667     0.827145000000   
P      0.318363333333     0.548690000000     0.927020000000   
P      0.007910000000     0.449450000000     0.922855000000   
P      0.215356666667     0.651696666667     0.677020000000   
P      0.116116666667     0.341243333333     0.672855000000   
P      0.014970000000     0.451310000000     0.572980000000   
P      0.325423333333     0.550550000000     0.577145000000   
H      0.140133333333     0.609866666667     0.866250000000   
H      0.157333333333     0.386333333333     0.907150000000   
H      0.210533333333     0.375400000000     0.908250000000   
H      0.193000000000     0.408400000000     0.872500000000   
H      0.056800000000     0.526533333333     0.883750000000   
H      0.280333333333     0.509333333333     0.842850000000   
H      0.291266666667     0.456133333333     0.841750000000   
H      0.258266666667     0.473666666667     0.877500000000   
H      0.193200000000     0.390133333333     0.633750000000   
H      0.176000000000     0.613666666667     0.592850000000   
H      0.122800000000     0.624600000000     0.591750000000   
H      0.140333333333     0.591600000000     0.627500000000   
H      0.276533333333     0.473466666667     0.616250000000   
H      0.053000000000     0.490666666667     0.657150000000   
H      0.042066666667     0.543866666667     0.658250000000   
H      0.075066666667     0.526333333333     0.622500000000   
Ru     0.181893333333     0.373880000000     0.750950000000   
Ru     0.292786666667     0.484773333333     0.999050000000   
Ru     0.151440000000     0.626120000000     0.749050000000   
Ru     0.040546666667     0.515226666667     0.500950000000   
C      0.168233333333     0.338900000000     0.859850000000   
C      0.183533333333     0.380733333333     0.889350000000   
C      0.327766666667     0.498433333333     0.890150000000   
C      0.285933333333     0.483133333333     0.860650000000   
C      0.165100000000     0.661100000000     0.640150000000   
C      0.149800000000     0.619266666667     0.610650000000   
C      0.005566666667     0.501566666667     0.609850000000   
C      0.047400000000     0.516866666667     0.639350000000   
O      0.136200000000     0.389266666667     0.794800000000   
O      0.102966666667     0.636566666667     0.793050000000   
O      0.077700000000     0.358033333333     0.849750000000   
O      0.230433333333     0.368100000000     0.799350000000   
O      0.198133333333     0.613933333333     0.797100000000   
O      0.257533333333     0.651666666667     0.857400000000   
O      0.150233333333     0.633366666667     0.883700000000   
O      0.277400000000     0.530466666667     0.955200000000   
O      0.030100000000     0.563700000000     0.956950000000   
O      0.308633333333     0.588966666667     0.900250000000   
O      0.298566666667     0.436233333333     0.950650000000   
O      0.052733333333     0.468533333333     0.952900000000   
O      0.015000000000     0.409133333333     0.892600000000   
O      0.033300000000     0.516433333333     0.866300000000   
O      0.197133333333     0.610733333333     0.705200000000   
O      0.230366666667     0.363433333333     0.706950000000   
O      0.255633333333     0.641966666667     0.650250000000   
O      0.102900000000     0.631900000000     0.700650000000   
O      0.135200000000     0.386066666667     0.702900000000   
O      0.075800000000     0.348333333333     0.642600000000   
O      0.183100000000     0.366633333333     0.616300000000   
O      0.055933333333     0.469533333333     0.544800000000   
O      0.303233333333     0.436300000000     0.543050000000   
O      0.024700000000     0.411033333333     0.599750000000   
O      0.034766666667     0.563766666667     0.549350000000   
O      0.280600000000     0.531466666667     0.547100000000   
O      0.318333333333     0.590866666667     0.607400000000   
O      0.300033333333     0.483566666667     0.633700000000   
Er     0.003620000000     0.996380000000     0.375000000000   
Er     0.329713333333     0.670286666667     0.125000000000   
P      0.117976666667     0.681636666667     0.322980000000   
P      0.217216666667     0.992090000000     0.327145000000   
P      0.318363333333     0.882023333333     0.427020000000   
P      0.007910000000     0.782783333333     0.422855000000   
P      0.215356666667     0.985030000000     0.177020000000   
P      0.116116666667     0.674576666667     0.172855000000   
P      0.014970000000     0.784643333333     0.072980000000   
P      0.325423333333     0.883883333333     0.077145000000   
H      0.140133333333     0.943200000000     0.366250000000   
H      0.157333333333     0.719666666667     0.407150000000   
H      0.210533333333     0.708733333333     0.408250000000   
H      0.193000000000     0.741733333333     0.372500000000   
H      0.056800000000     0.859866666667     0.383750000000   
H      0.280333333333     0.842666666667     0.342850000000   
H      0.291266666667     0.789466666667     0.341750000000   
H      0.258266666667     0.807000000000     0.377500000000   
H      0.193200000000     0.723466666667     0.133750000000   
H      0.176000000000     0.947000000000     0.092850000000   
H      0.122800000000     0.957933333333     0.091750000000   
H      0.140333333333     0.924933333333     0.127500000000   
H      0.276533333333     0.806800000000     0.116250000000   
H      0.053000000000     0.824000000000     0.157150000000   
H      0.042066666667     0.877200000000     0.158250000000   
H      0.075066666667     0.859666666667     0.122500000000   
Ru     0.181893333333     0.707213333333     0.250950000000   
Ru     0.292786666667     0.818106666667     0.499050000000   
Ru     0.151440000000     0.959453333333     0.249050000000   
Ru     0.040546666667     0.848560000000     0.000950000000   
C      0.168233333333     0.672233333333     0.359850000000   
C      0.183533333333     0.714066666667     0.389350000000   
C      0.327766666667     0.831766666667     0.390150000000   
C      0.285933333333     0.816466666667     0.360650000000   
C      0.165100000000     0.994433333333     0.140150000000   
C      0.149800000000     0.952600000000     0.110650000000   
C      0.005566666667     0.834900000000     0.109850000000   
C      0.047400000000     0.850200000000     0.139350000000   
O      0.136200000000     0.722600000000     0.294800000000   
O      0.102966666667     0.969900000000     0.293050000000   
O      0.077700000000     0.691366666667     0.349750000000   
O      0.230433333333     0.701433333333     0.299350000000   
O      0.198133333333     0.947266666667     0.297100000000   
O      0.257533333333     0.985000000000     0.357400000000   
O      0.150233333333     0.966700000000     0.383700000000   
O      0.277400000000     0.863800000000     0.455200000000   
O      0.030100000000     0.897033333333     0.456950000000   
O      0.308633333333     0.922300000000     0.400250000000   
O      0.298566666667     0.769566666667     0.450650000000   
O      0.052733333333     0.801866666667     0.452900000000   
O      0.015000000000     0.742466666667     0.392600000000   
O      0.033300000000     0.849766666667     0.366300000000   
O      0.197133333333     0.944066666667     0.205200000000   
O      0.230366666667     0.696766666667     0.206950000000   
O      0.255633333333     0.975300000000     0.150250000000   
O      0.102900000000     0.965233333333     0.200650000000   
O      0.135200000000     0.719400000000     0.202900000000   
O      0.075800000000     0.681666666667     0.142600000000   
O      0.183100000000     0.699966666667     0.116300000000   
O      0.055933333333     0.802866666667     0.044800000000   
O      0.303233333333     0.769633333333     0.043050000000   
O      0.024700000000     0.744366666667     0.099750000000   
O      0.034766666667     0.897100000000     0.049350000000   
O      0.280600000000     0.864800000000     0.047100000000   
O      0.318333333333     0.924200000000     0.107400000000   
O      0.300033333333     0.816900000000     0.133700000000   
Er     0.003620000000     0.996380000000     0.875000000000   
Er     0.329713333333     0.670286666667     0.625000000000   
P      0.117976666667     0.681636666667     0.822980000000   
P      0.217216666667     0.992090000000     0.827145000000   
P      0.318363333333     0.882023333333     0.927020000000   
P      0.007910000000     0.782783333333     0.922855000000   
P      0.215356666667     0.985030000000     0.677020000000   
P      0.116116666667     0.674576666667     0.672855000000   
P      0.014970000000     0.784643333333     0.572980000000   
P      0.325423333333     0.883883333333     0.577145000000   
H      0.140133333333     0.943200000000     0.866250000000   
H      0.157333333333     0.719666666667     0.907150000000   
H      0.210533333333     0.708733333333     0.908250000000   
H      0.193000000000     0.741733333333     0.872500000000   
H      0.056800000000     0.859866666667     0.883750000000   
H      0.280333333333     0.842666666667     0.842850000000   
H      0.291266666667     0.789466666667     0.841750000000   
H      0.258266666667     0.807000000000     0.877500000000   
H      0.193200000000     0.723466666667     0.633750000000   
H      0.176000000000     0.947000000000     0.592850000000   
H      0.122800000000     0.957933333333     0.591750000000   
H      0.140333333333     0.924933333333     0.627500000000   
H      0.276533333333     0.806800000000     0.616250000000   
H      0.053000000000     0.824000000000     0.657150000000   
H      0.042066666667     0.877200000000     0.658250000000   
H      0.075066666667     0.859666666667     0.622500000000   
Ru     0.181893333333     0.707213333333     0.750950000000   
Ru     0.292786666667     0.818106666667     0.999050000000   
Ru     0.151440000000     0.959453333333     0.749050000000   
Ru     0.040546666667     0.848560000000     0.500950000000   
C      0.168233333333     0.672233333333     0.859850000000   
C      0.183533333333     0.714066666667     0.889350000000   
C      0.327766666667     0.831766666667     0.890150000000   
C      0.285933333333     0.816466666667     0.860650000000   
C      0.165100000000     0.994433333333     0.640150000000   
C      0.149800000000     0.952600000000     0.610650000000   
C      0.005566666667     0.834900000000     0.609850000000   
C      0.047400000000     0.850200000000     0.639350000000   
O      0.136200000000     0.722600000000     0.794800000000   
O      0.102966666667     0.969900000000     0.793050000000   
O      0.077700000000     0.691366666667     0.849750000000   
O      0.230433333333     0.701433333333     0.799350000000   
O      0.198133333333     0.947266666667     0.797100000000   
O      0.257533333333     0.985000000000     0.857400000000   
O      0.150233333333     0.966700000000     0.883700000000   
O      0.277400000000     0.863800000000     0.955200000000   
O      0.030100000000     0.897033333333     0.956950000000   
O      0.308633333333     0.922300000000     0.900250000000   
O      0.298566666667     0.769566666667     0.950650000000   
O      0.052733333333     0.801866666667     0.952900000000   
O      0.015000000000     0.742466666667     0.892600000000   
O      0.033300000000     0.849766666667     0.866300000000   
O      0.197133333333     0.944066666667     0.705200000000   
O      0.230366666667     0.696766666667     0.706950000000   
O      0.255633333333     0.975300000000     0.650250000000   
O      0.102900000000     0.965233333333     0.700650000000   
O      0.135200000000     0.719400000000     0.702900000000   
O      0.075800000000     0.681666666667     0.642600000000   
O      0.183100000000     0.699966666667     0.616300000000   
O      0.055933333333     0.802866666667     0.544800000000   
O      0.303233333333     0.769633333333     0.543050000000   
O      0.024700000000     0.744366666667     0.599750000000   
O      0.034766666667     0.897100000000     0.549350000000   
O      0.280600000000     0.864800000000     0.547100000000   
O      0.318333333333     0.924200000000     0.607400000000   
O      0.300033333333     0.816900000000     0.633700000000   
Er     0.336953333333     0.329713333333     0.375000000000   
Er     0.663046666667     0.003620000000     0.125000000000   
P      0.451310000000     0.014970000000     0.322980000000   
P      0.550550000000     0.325423333333     0.327145000000   
P      0.651696666667     0.215356666667     0.427020000000   
P      0.341243333333     0.116116666667     0.422855000000   
P      0.548690000000     0.318363333333     0.177020000000   
P      0.449450000000     0.007910000000     0.172855000000   
P      0.348303333333     0.117976666667     0.072980000000   
P      0.658756666667     0.217216666667     0.077145000000   
H      0.473466666667     0.276533333333     0.366250000000   
H      0.490666666667     0.053000000000     0.407150000000   
H      0.543866666667     0.042066666667     0.408250000000   
H      0.526333333333     0.075066666667     0.372500000000   
H      0.390133333333     0.193200000000     0.383750000000   
H      0.613666666667     0.176000000000     0.342850000000   
H      0.624600000000     0.122800000000     0.341750000000   
H      0.591600000000     0.140333333333     0.377500000000   
H      0.526533333333     0.056800000000     0.133750000000   
H      0.509333333333     0.280333333333     0.092850000000   
H      0.456133333333     0.291266666667     0.091750000000   
H      0.473666666667     0.258266666667     0.127500000000   
H      0.609866666667     0.140133333333     0.116250000000   
H      0.386333333333     0.157333333333     0.157150000000   
H      0.375400000000     0.210533333333     0.158250000000   
H      0.408400000000     0.193000000000     0.122500000000   
Ru     0.515226666667     0.040546666667     0.250950000000   
Ru     0.626120000000     0.151440000000     0.499050000000   
Ru     0.484773333333     0.292786666667     0.249050000000   
Ru     0.373880000000     0.181893333333     0.000950000000   
C      0.501566666667     0.005566666667     0.359850000000   
C      0.516866666667     0.047400000000     0.389350000000   
C      0.661100000000     0.165100000000     0.390150000000   
C      0.619266666667     0.149800000000     0.360650000000   
C      0.498433333333     0.327766666667     0.140150000000   
C      0.483133333333     0.285933333333     0.110650000000   
C      0.338900000000     0.168233333333     0.109850000000   
C      0.380733333333     0.183533333333     0.139350000000   
O      0.469533333333     0.055933333333     0.294800000000   
O      0.436300000000     0.303233333333     0.293050000000   
O      0.411033333333     0.024700000000     0.349750000000   
O      0.563766666667     0.034766666667     0.299350000000   
O      0.531466666667     0.280600000000     0.297100000000   
O      0.590866666667     0.318333333333     0.357400000000   
O      0.483566666667     0.300033333333     0.383700000000   
O      0.610733333333     0.197133333333     0.455200000000   
O      0.363433333333     0.230366666667     0.456950000000   
O      0.641966666667     0.255633333333     0.400250000000   
O      0.631900000000     0.102900000000     0.450650000000   
O      0.386066666667     0.135200000000     0.452900000000   
O      0.348333333333     0.075800000000     0.392600000000   
O      0.366633333333     0.183100000000     0.366300000000   
O      0.530466666667     0.277400000000     0.205200000000   
O      0.563700000000     0.030100000000     0.206950000000   
O      0.588966666667     0.308633333333     0.150250000000   
O      0.436233333333     0.298566666667     0.200650000000   
O      0.468533333333     0.052733333333     0.202900000000   
O      0.409133333333     0.015000000000     0.142600000000   
O      0.516433333333     0.033300000000     0.116300000000   
O      0.389266666667     0.136200000000     0.044800000000   
O      0.636566666667     0.102966666667     0.043050000000   
O      0.358033333333     0.077700000000     0.099750000000   
O      0.368100000000     0.230433333333     0.049350000000   
O      0.613933333333     0.198133333333     0.047100000000   
O      0.651666666667     0.257533333333     0.107400000000   
O      0.633366666667     0.150233333333     0.133700000000   
Er     0.336953333333     0.329713333333     0.875000000000   
Er     0.663046666667     0.003620000000     0.625000000000   
P      0.451310000000     0.014970000000     0.822980000000   
P      0.550550000000     0.325423333333     0.827145000000   
P      0.651696666667     0.215356666667     0.927020000000   
P      0.341243333333     0.116116666667     0.922855000000   
P      0.548690000000     0.318363333333     0.677020000000   
P      0.449450000000     0.007910000000     0.672855000000   
P      0.348303333333     0.117976666667     0.572980000000   
P      0.658756666667     0.217216666667     0.577145000000   