%BLOCK LATTICE_CART
ang    # angstrom units
  9.499000000000     0.000000000000     0.000000000000   
 -4.703613952235     8.352000296237     0.000000000000   
 -1.151212458557    -3.369923038402     10.928945916259  
%ENDBLOCK LATTICE_CART

%BLOCK POSITIONS_FRAC
Ag     0.170106666667     0.202010000000     0.059206666667   
Ag     0.163226666667     0.047990000000     0.274126666667   
C      0.299066666667     0.083950000000     0.042900000000   
C      0.296166666667     0.001275000000     0.077066666667   
C      0.178566666667     0.135750000000     0.189700000000   
C      0.016800000000     0.016175000000     0.094666666667   
C      0.154766666667     0.114250000000     0.143633333333   
C      0.028166666667     0.245375000000     0.118666666667   
C      0.318400000000     0.210200000000     0.124166666667   
C      0.264600000000     0.197075000000     0.105633333333   
C      0.025900000000     0.153400000000     0.244766666667   
C      0.084666666667     0.179200000000     0.314800000000   
C      0.034266666667     0.166050000000     0.290433333333   
C      0.305166666667     0.004625000000     0.214666666667   
C      0.162266666667     0.241675000000     0.143433333333   
C      0.325600000000     0.164125000000     0.308733333333   
C      0.002233333333     0.175475000000     0.017066666667   
C      0.068733333333     0.052925000000     0.227700000000   
C      0.052800000000     0.186725000000     0.039533333333   
C      0.307433333333     0.096600000000     0.088566666667   
C      0.248666666667     0.070800000000     0.018533333333   
C      0.280533333333     0.063275000000     0.293800000000   
C      0.316533333333     0.233825000000     0.238666666667   
C      0.331100000000     0.074525000000     0.316266666667   
C      0.037166666667     0.248725000000     0.256266666667   
C      0.007733333333     0.085875000000     0.024600000000   
C      0.005500000000     0.064525000000     0.184200000000   
C      0.171066666667     0.008325000000     0.189900000000   
C      0.014933333333     0.039800000000     0.209166666667   
C      0.327833333333     0.185475000000     0.149133333333   
Er     0.089530000000     0.159695000000     0.168343333333   
Er     0.243803333333     0.090305000000     0.164990000000   
H      0.045400000000     0.039950000000     0.090466666667   
H      0.044466666667     0.234575000000     0.272500000000   
H      0.024833333333     0.074450000000     0.303333333333   
H      0.287933333333     0.210050000000     0.242866666667   
H      0.274866666667     0.057050000000     0.265566666667   
H      0.268766666667     0.244975000000     0.202333333333   
H      0.288866666667     0.015425000000     0.060833333333   
H      0.220100000000     0.068625000000     0.030800000000   
H      0.098066666667     0.076500000000     0.223800000000   
H      0.308500000000     0.175550000000     0.030000000000   
H      0.291166666667     0.155300000000     0.292933333333   
H      0.113233333333     0.181375000000     0.302533333333   
H      0.235266666667     0.173500000000     0.109533333333   
H      0.042166666667     0.094700000000     0.040400000000   
H      0.058466666667     0.192950000000     0.067766666667   
H      0.064566666667     0.005025000000     0.131000000000   
N      0.253600000000     0.217575000000     0.082033333333   
N      0.094200000000     0.189125000000     0.022733333333   
N      0.239133333333     0.060875000000     0.310600000000   
N      0.079733333333     0.032425000000     0.251300000000   
O      0.180066666667     0.018150000000     0.124553333333   
O      0.168266666667     0.088800000000     0.127466666667   
O      0.047466666667     0.093900000000     0.177933333333   
O      0.289433333333     0.054750000000     0.172566666667   
O      0.023166666667     0.120625000000     0.108833333333   
O      0.264766666667     0.082675000000     0.102300000000   
O      0.195100000000     0.047350000000     0.204906666667   
O      0.209600000000     0.126775000000     0.207483333333   
O      0.165066666667     0.161200000000     0.205866666667   
O      0.285866666667     0.156100000000     0.155400000000   
O      0.043900000000     0.195250000000     0.160766666667   
O      0.310166666667     0.129375000000     0.224500000000   
O      0.068566666667     0.167325000000     0.231033333333   
O      0.138233333333     0.202650000000     0.128426666667   
O      0.123733333333     0.123225000000     0.125850000000   
O      0.153266666667     0.231850000000     0.208780000000   
Ag     0.170106666667     0.202010000000     0.392540000000   
Ag     0.163226666667     0.047990000000     0.607460000000   
C      0.299066666667     0.083950000000     0.376233333333   
C      0.296166666667     0.001275000000     0.410400000000   
C      0.178566666667     0.135750000000     0.523033333333   
C      0.016800000000     0.016175000000     0.428000000000   
C      0.154766666667     0.114250000000     0.476966666667   
C      0.028166666667     0.245375000000     0.452000000000   
C      0.318400000000     0.210200000000     0.457500000000   
C      0.264600000000     0.197075000000     0.438966666667   
C      0.025900000000     0.153400000000     0.578100000000   
C      0.084666666667     0.179200000000     0.648133333333   
C      0.034266666667     0.166050000000     0.623766666667   
C      0.305166666667     0.004625000000     0.548000000000   
C      0.162266666667     0.241675000000     0.476766666667   
C      0.325600000000     0.164125000000     0.642066666667   
C      0.002233333333     0.175475000000     0.350400000000   
C      0.068733333333     0.052925000000     0.561033333333   
C      0.052800000000     0.186725000000     0.372866666667   
C      0.307433333333     0.096600000000     0.421900000000   
C      0.248666666667     0.070800000000     0.351866666667   
C      0.280533333333     0.063275000000     0.627133333333   
C      0.316533333333     0.233825000000     0.572000000000   
C      0.331100000000     0.074525000000     0.649600000000   
C      0.037166666667     0.248725000000     0.589600000000   
C      0.007733333333     0.085875000000     0.357933333333   
C      0.005500000000     0.064525000000     0.517533333333   
C      0.171066666667     0.008325000000     0.523233333333   
C      0.014933333333     0.039800000000     0.542500000000   
C      0.327833333333     0.185475000000     0.482466666667   
Er     0.089530000000     0.159695000000     0.501676666667   
Er     0.243803333333     0.090305000000     0.498323333333   
H      0.045400000000     0.039950000000     0.423800000000   
H      0.044466666667     0.234575000000     0.605833333333   
H      0.024833333333     0.074450000000     0.636666666667   
H      0.287933333333     0.210050000000     0.576200000000   
H      0.274866666667     0.057050000000     0.598900000000   
H      0.268766666667     0.244975000000     0.535666666667   
H      0.288866666667     0.015425000000     0.394166666667   
H      0.220100000000     0.068625000000     0.364133333333   
H      0.098066666667     0.076500000000     0.557133333333   
H      0.308500000000     0.175550000000     0.363333333333   
H      0.291166666667     0.155300000000     0.626266666667   
H      0.113233333333     0.181375000000     0.635866666667   
H      0.235266666667     0.173500000000     0.442866666667   
H      0.042166666667     0.094700000000     0.373733333333   
H      0.058466666667     0.192950000000     0.401100000000   
H      0.064566666667     0.005025000000     0.464333333333   
N      0.253600000000     0.217575000000     0.415366666667   
N      0.094200000000     0.189125000000     0.356066666667   
N      0.239133333333     0.060875000000     0.643933333333   
N      0.079733333333     0.032425000000     0.584633333333   
O      0.180066666667     0.018150000000     0.457886666667   
O      0.168266666667     0.088800000000     0.460800000000   
O      0.047466666667     0.093900000000     0.511266666667   
O      0.289433333333     0.054750000000     0.505900000000   
O      0.023166666667     0.120625000000     0.442166666667   
O      0.264766666667     0.082675000000     0.435633333333   
O      0.195100000000     0.047350000000     0.538240000000   
O      0.209600000000     0.126775000000     0.540816666667   
O      0.165066666667     0.161200000000     0.539200000000   
O      0.285866666667     0.156100000000     0.488733333333   
O      0.043900000000     0.195250000000     0.494100000000   
O      0.310166666667     0.129375000000     0.557833333333   
O      0.068566666667     0.167325000000     0.564366666667   
O      0.138233333333     0.202650000000     0.461760000000   
O      0.123733333333     0.123225000000     0.459183333333   
O      0.153266666667     0.231850000000     0.542113333333   
Ag     0.170106666667     0.202010000000     0.725873333333   
Ag     0.163226666667     0.047990000000     0.940793333333   
C      0.299066666667     0.083950000000     0.709566666667   
C      0.296166666667     0.001275000000     0.743733333333   
C      0.178566666667     0.135750000000     0.856366666667   
C      0.016800000000     0.016175000000     0.761333333333   
C      0.154766666667     0.114250000000     0.810300000000   
C      0.028166666667     0.245375000000     0.785333333333   
C      0.318400000000     0.210200000000     0.790833333333   
C      0.264600000000     0.197075000000     0.772300000000   
C      0.025900000000     0.153400000000     0.911433333333   
C      0.084666666667     0.179200000000     0.981466666667   
C      0.034266666667     0.166050000000     0.957100000000   
C      0.305166666667     0.004625000000     0.881333333333   
C      0.162266666667     0.241675000000     0.810100000000   
C      0.325600000000     0.164125000000     0.975400000000   
C      0.002233333333     0.175475000000     0.683733333333   
C      0.068733333333     0.052925000000     0.894366666667   
C      0.052800000000     0.186725000000     0.706200000000   
C      0.307433333333     0.096600000000     0.755233333333   
C      0.248666666667     0.070800000000     0.685200000000   
C      0.280533333333     0.063275000000     0.960466666667   
C      0.316533333333     0.233825000000     0.905333333333   
C      0.331100000000     0.074525000000     0.982933333333   
C      0.037166666667     0.248725000000     0.922933333333   
C      0.007733333333     0.085875000000     0.691266666667   
C      0.005500000000     0.064525000000     0.850866666667   
C      0.171066666667     0.008325000000     0.856566666667   
C      0.014933333333     0.039800000000     0.875833333333   
C      0.327833333333     0.185475000000     0.815800000000   
Er     0.089530000000     0.159695000000     0.835010000000   
Er     0.243803333333     0.090305000000     0.831656666667   
H      0.045400000000     0.039950000000     0.757133333333   
H      0.044466666667     0.234575000000     0.939166666667   
H      0.024833333333     0.074450000000     0.970000000000   
H      0.287933333333     0.210050000000     0.909533333333   
H      0.274866666667     0.057050000000     0.932233333333   
H      0.268766666667     0.244975000000     0.869000000000   
H      0.288866666667     0.015425000000     0.727500000000   
H      0.220100000000     0.068625000000     0.697466666667   
H      0.098066666667     0.076500000000     0.890466666667   
H      0.308500000000     0.175550000000     0.696666666667   
H      0.291166666667     0.155300000000     0.959600000000   
H      0.113233333333     0.181375000000     0.969200000000   
H      0.235266666667     0.173500000000     0.776200000000   
H      0.042166666667     0.094700000000     0.707066666667   
H      0.058466666667     0.192950000000     0.734433333333   
H      0.064566666667     0.005025000000     0.797666666667   
N      0.253600000000     0.217575000000     0.748700000000   
N      0.094200000000     0.189125000000     0.689400000000   
N      0.239133333333     0.060875000000     0.977266666667   
N      0.079733333333     0.032425000000     0.917966666667   
O      0.180066666667     0.018150000000     0.791220000000   
O      0.168266666667     0.088800000000     0.794133333333   
O      0.047466666667     0.093900000000     0.844600000000   
O      0.289433333333     0.054750000000     0.839233333333   
O      0.023166666667     0.120625000000     0.775500000000   
O      0.264766666667     0.082675000000     0.768966666667   
O      0.195100000000     0.047350000000     0.871573333333   
O      0.209600000000     0.126775000000     0.874150000000   
O      0.165066666667     0.161200000000     0.872533333333   
O      0.285866666667     0.156100000000     0.822066666667   
O      0.043900000000     0.195250000000     0.827433333333   
O      0.310166666667     0.129375000000     0.891166666667   
O      0.068566666667     0.167325000000     0.897700000000   
O      0.138233333333     0.202650000000     0.795093333333   
O      0.123733333333     0.123225000000     0.792516666667   
O      0.153266666667     0.231850000000     0.875446666667   
Ag     0.170106666667     0.452010000000     0.059206666667   
Ag     0.163226666667     0.297990000000     0.274126666667   
C      0.299066666667     0.333950000000     0.042900000000   
C      0.296166666667     0.251275000000     0.077066666667   
C      0.178566666667     0.385750000000     0.189700000000   
C      0.016800000000     0.266175000000     0.094666666667   
C      0.154766666667     0.364250000000     0.143633333333   
C      0.028166666667     0.495375000000     0.118666666667   
C      0.318400000000     0.460200000000     0.124166666667   
C      0.264600000000     0.447075000000     0.105633333333   
C      0.025900000000     0.403400000000     0.244766666667   
C      0.084666666667     0.429200000000     0.314800000000   
C      0.034266666667     0.416050000000     0.290433333333   
C      0.305166666667     0.254625000000     0.214666666667   
C      0.162266666667     0.491675000000     0.143433333333   
C      0.325600000000     0.414125000000     0.308733333333   
C      0.002233333333     0.425475000000     0.017066666667   
C      0.068733333333     0.302925000000     0.227700000000   
C      0.052800000000     0.436725000000     0.039533333333   
C      0.307433333333     0.346600000000     0.088566666667   
C      0.248666666667     0.320800000000     0.018533333333   
C      0.280533333333     0.313275000000     0.293800000000   
C      0.316533333333     0.483825000000     0.238666666667   
C      0.331100000000     0.324525000000     0.316266666667   
C      0.037166666667     0.498725000000     0.256266666667   
C      0.007733333333     0.335875000000     0.024600000000   
C      0.005500000000     0.314525000000     0.184200000000   
C      0.171066666667     0.258325000000     0.189900000000   
C      0.014933333333     0.289800000000     0.209166666667   
C      0.327833333333     0.435475000000     0.149133333333   
Er     0.089530000000     0.409695000000     0.168343333333   
Er     0.243803333333     0.340305000000     0.164990000000   
H      0.045400000000     0.289950000000     0.090466666667   
H      0.044466666667     0.484575000000     0.272500000000   
H      0.024833333333     0.324450000000     0.303333333333   
H      0.287933333333     0.460050000000     0.242866666667   
H      0.274866666667     0.307050000000     0.265566666667   
H      0.268766666667     0.494975000000     0.202333333333   
H      0.288866666667     0.265425000000     0.060833333333   
H      0.220100000000     0.318625000000     0.030800000000   
H      0.098066666667     0.326500000000     0.223800000000   
H      0.308500000000     0.425550000000     0.030000000000   
H      0.291166666667     0.405300000000     0.292933333333   
H      0.113233333333     0.431375000000     0.302533333333   
H      0.235266666667     0.423500000000     0.109533333333   
H      0.042166666667     0.344700000000     0.040400000000   
H      0.058466666667     0.442950000000     0.067766666667   
H      0.064566666667     0.255025000000     0.131000000000   
N      0.253600000000     0.467575000000     0.082033333333   
N      0.094200000000     0.439125000000     0.022733333333   
N      0.239133333333     0.310875000000     0.310600000000   
N      0.079733333333     0.282425000000     0.251300000000   
O      0.180066666667     0.268150000000     0.124553333333   
O      0.168266666667     0.338800000000     0.127466666667   
O      0.047466666667     0.343900000000     0.177933333333   
O      0.289433333333     0.304750000000     0.172566666667   
O      0.023166666667     0.370625000000     0.108833333333   
O      0.264766666667     0.332675000000     0.102300000000   
O      0.195100000000     0.297350000000     0.204906666667   
O      0.209600000000     0.376775000000     0.207483333333   
O      0.165066666667     0.411200000000     0.205866666667   
O      0.285866666667     0.406100000000     0.155400000000   
O      0.043900000000     0.445250000000     0.160766666667   
O      0.310166666667     0.379375000000     0.224500000000   
O      0.068566666667     0.417325000000     0.231033333333   
O      0.138233333333     0.452650000000     0.128426666667   
O      0.123733333333     0.373225000000     0.125850000000   
O      0.153266666667     0.481850000000     0.208780000000   
Ag     0.170106666667     0.452010000000     0.392540000000   
Ag     0.163226666667     0.297990000000     0.607460000000   
C      0.299066666667     0.333950000000     0.376233333333   
C      0.296166666667     0.251275000000     0.410400000000   
C      0.178566666667     0.385750000000     0.523033333333   
C      0.016800000000     0.266175000000     0.428000000000   
C      0.154766666667     0.364250000000     0.476966666667   
C      0.028166666667     0.495375000000     0.452000000000   
C      0.318400000000     0.460200000000     0.457500000000   
C      0.264600000000     0.447075000000     0.438966666667   
C      0.025900000000     0.403400000000     0.578100000000   
C      0.084666666667     0.429200000000     0.648133333333   
C      0.034266666667     0.416050000000     0.623766666667   
C      0.305166666667     0.254625000000     0.548000000000   
C      0.162266666667     0.491675000000     0.476766666667   
C      0.325600000000     0.414125000000     0.642066666667   
C      0.002233333333     0.425475000000     0.350400000000   
C      0.068733333333     0.302925000000     0.561033333333   
C      0.052800000000     0.436725000000     0.372866666667   
C      0.307433333333     0.346600000000     0.421900000000   
C      0.248666666667     0.320800000000     0.351866666667   
C      0.280533333333     0.313275000000     0.627133333333   
C      0.316533333333     0.483825000000     0.572000000000   
C      0.331100000000     0.324525000000     0.649600000000   
C      0.037166666667     0.498725000000     0.589600000000   
C      0.007733333333     0.335875000000     0.357933333333   
C      0.005500000000     0.314525000000     0.517533333333   
C      0.171066666667     0.258325000000     0.523233333333   
C      0.014933333333     0.289800000000     0.542500000000   
C      0.327833333333     0.435475000000     0.482466666667   
Er     0.089530000000     0.409695000000     0.501676666667   
Er     0.243803333333     0.340305000000     0.498323333333   
H      0.045400000000     0.289950000000     0.423800000000   
H      0.044466666667     0.484575000000     0.605833333333   
H      0.024833333333     0.324450000000     0.636666666667   
H      0.287933333333     0.460050000000     0.576200000000   
H      0.274866666667     0.307050000000     0.598900000000   
H      0.268766666667     0.494975000000     0.535666666667   
H      0.288866666667     0.265425000000     0.394166666667   
H      0.220100000000     0.318625000000     0.364133333333   
H      0.098066666667     0.326500000000     0.557133333333   
H      0.308500000000     0.425550000000     0.363333333333   
H      0.291166666667     0.405300000000     0.626266666667   
H      0.113233333333     0.431375000000     0.635866666667   
H      0.235266666667     0.423500000000     0.442866666667   
H      0.042166666667     0.344700000000     0.373733333333   
H      0.058466666667     0.442950000000     0.401100000000   
H      0.064566666667     0.255025000000     0.464333333333   
N      0.253600000000     0.467575000000     0.415366666667   
N      0.094200000000     0.439125000000     0.356066666667   
N      0.239133333333     0.310875000000     0.643933333333   
N      0.079733333333     0.282425000000     0.584633333333   
O      0.180066666667     0.268150000000     0.457886666667   
O      0.168266666667     0.338800000000     0.460800000000   
O      0.047466666667     0.343900000000     0.511266666667   
O      0.289433333333     0.304750000000     0.505900000000   
O      0.023166666667     0.370625000000     0.442166666667   
O      0.264766666667     0.332675000000     0.435633333333   
O      0.195100000000     0.297350000000     0.538240000000   
O      0.209600000000     0.376775000000     0.540816666667   
O      0.165066666667     0.411200000000     0.539200000000   
O      0.285866666667     0.406100000000     0.488733333333   
O      0.043900000000     0.445250000000     0.494100000000   
O      0.310166666667     0.379375000000     0.557833333333   
O      0.068566666667     0.417325000000     0.564366666667   
O      0.138233333333     0.452650000000     0.461760000000   
O      0.123733333333     0.373225000000     0.459183333333   
O      0.153266666667     0.481850000000     0.542113333333   
Ag     0.170106666667     0.452010000000     0.725873333333   
Ag     0.163226666667     0.297990000000     0.940793333333   
C      0.299066666667     0.333950000000     0.709566666667   
C      0.296166666667     0.251275000000     0.743733333333   
C      0.178566666667     0.385750000000     0.856366666667   
C      0.016800000000     0.266175000000     0.761333333333   
C      0.154766666667     0.364250000000     0.810300000000   
C      0.028166666667     0.495375000000     0.785333333333   
C      0.318400000000     0.460200000000     0.790833333333   
C      0.264600000000     0.447075000000     0.772300000000   
C      0.025900000000     0.403400000000     0.911433333333   
C      0.084666666667     0.429200000000     0.981466666667   
C      0.034266666667     0.416050000000     0.957100000000   
C      0.305166666667     0.254625000000     0.881333333333   
C      0.162266666667     0.491675000000     0.810100000000   
C      0.325600000000     0.414125000000     0.975400000000   
C      0.002233333333     0.425475000000     0.683733333333   
C      0.068733333333     0.302925000000     0.894366666667   
C      0.052800000000     0.436725000000     0.706200000000   
C      0.307433333333     0.346600000000     0.755233333333   
C      0.248666666667     0.320800000000     0.685200000000   
C      0.280533333333     0.313275000000     0.960466666667   
C      0.316533333333     0.483825000000     0.905333333333   
C      0.331100000000     0.324525000000     0.982933333333   
C      0.037166666667     0.498725000000     0.922933333333   
C      0.007733333333     0.335875000000     0.691266666667   
C      0.005500000000     0.314525000000     0.850866666667   
C      0.171066666667     0.258325000000     0.856566666667   
C      0.014933333333     0.289800000000     0.875833333333   
C      0.327833333333     0.435475000000     0.815800000000   
Er     0.089530000000     0.409695000000     0.835010000000   
Er     0.243803333333     0.340305000000     0.831656666667   
H      0.045400000000     0.289950000000     0.757133333333   
H      0.044466666667     0.484575000000     0.939166666667   
H      0.024833333333     0.324450000000     0.970000000000   
H      0.287933333333     0.460050000000     0.909533333333   
H      0.274866666667     0.307050000000     0.932233333333   
H      0.268766666667     0.494975000000     0.869000000000   
H      0.288866666667     0.265425000000     0.727500000000   
H      0.220100000000     0.318625000000     0.697466666667   
H      0.098066666667     0.326500000000     0.890466666667   
H      0.308500000000     0.425550000000     0.696666666667   
H      0.291166666667     0.405300000000     0.959600000000   
H      0.113233333333     0.431375000000     0.969200000000   
H      0.235266666667     0.423500000000     0.776200000000   
H      0.042166666667     0.344700000000     0.707066666667   
H      0.058466666667     0.442950000000     0.734433333333   
H      0.064566666667     0.255025000000     0.797666666667   
N      0.253600000000     0.467575000000     0.748700000000   
N      0.094200000000     0.439125000000     0.689400000000   
N      0.239133333333     0.310875000000     0.977266666667   
N      0.079733333333     0.282425000000     0.917966666667   
O      0.180066666667     0.268150000000     0.791220000000   
O      0.168266666667     0.338800000000     0.794133333333   
O      0.047466666667     0.343900000000     0.844600000000   
O      0.289433333333     0.304750000000     0.839233333333   
O      0.023166666667     0.370625000000     0.775500000000   
O      0.264766666667     0.332675000000     0.768966666667   
O      0.195100000000     0.297350000000     0.871573333333   
O      0.209600000000     0.376775000000     0.874150000000   
O      0.165066666667     0.411200000000     0.872533333333   
O      0.285866666667     0.406100000000     0.822066666667   
O      0.043900000000     0.445250000000     0.827433333333   
O      0.310166666667     0.379375000000     0.891166666667   
O      0.068566666667     0.417325000000     0.897700000000   
O      0.138233333333     0.452650000000     0.795093333333   
O      0.123733333333     0.373225000000     0.792516666667   
O      0.153266666667     0.481850000000     0.875446666667   
Ag     0.170106666667     0.702010000000     0.059206666667   
Ag     0.163226666667     0.547990000000     0.274126666667   
C      0.299066666667     0.583950000000     0.042900000000   
C      0.296166666667     0.501275000000     0.077066666667   
C      0.178566666667     0.635750000000     0.189700000000   
C      0.016800000000     0.516175000000     0.094666666667   
C      0.154766666667     0.614250000000     0.143633333333   
C      0.028166666667     0.745375000000     0.118666666667   
C      0.318400000000     0.710200000000     0.124166666667   
C      0.264600000000     0.697075000000     0.105633333333   
C      0.025900000000     0.653400000000     0.244766666667   
C      0.084666666667     0.679200000000     0.314800000000   
C      0.034266666667     0.666050000000     0.290433333333   
C      0.305166666667     0.504625000000     0.214666666667   
C      0.162266666667     0.741675000000     0.143433333333   
C      0.325600000000     0.664125000000     0.308733333333   
C      0.002233333333     0.675475000000     0.017066666667   
C      0.068733333333     0.552925000000     0.227700000000   
C      0.052800000000     0.686725000000     0.039533333333   
C      0.307433333333     0.596600000000     0.088566666667   
C      0.248666666667     0.570800000000     0.018533333333   
C      0.280533333333     0.563275000000     0.293800000000   
C      0.316533333333     0.733825000000     0.238666666667   
C      0.331100000000     0.574525000000     0.316266666667   
C      0.037166666667     0.748725000000     0.256266666667   
C      0.007733333333     0.585875000000     0.024600000000   
C      0.005500000000     0.564525000000     0.184200000000   
C      0.171066666667     0.508325000000     0.189900000000   
C      0.014933333333     0.539800000000     0.209166666667   
C      0.327833333333     0.685475000000     0.149133333333   
Er     0.089530000000     0.659695000000     0.168343333333   
Er     0.243803333333     0.590305000000     0.164990000000   
H      0.045400000000     0.539950000000     0.090466666667   
H      0.044466666667     0.734575000000     0.272500000000   
H      0.024833333333     0.574450000000     0.303333333333   
H      0.287933333333     0.710050000000     0.242866666667   
H      0.274866666667     0.557050000000     0.265566666667   
H      0.268766666667     0.744975000000     0.202333333333   
H      0.288866666667     0.515425000000     0.060833333333   
H      0.220100000000     0.568625000000     0.030800000000   
H      0.098066666667     0.576500000000     0.223800000000   
H      0.308500000000     0.675550000000     0.030000000000   
H      0.291166666667     0.655300000000     0.292933333333   
H      0.113233333333     0.681375000000     0.302533333333   
H      0.235266666667     0.673500000000     0.109533333333   
H      0.042166666667     0.594700000000     0.040400000000   
H      0.058466666667     0.692950000000     0.067766666667   
H      0.064566666667     0.505025000000     0.131000000000   
N      0.253600000000     0.717575000000     0.082033333333   
N      0.094200000000     0.689125000000     0.022733333333   
N      0.239133333333     0.560875000000     0.310600000000   
N      0.079733333333     0.532425000000     0.251300000000   
O      0.180066666667     0.518150000000     0.124553333333   
O      0.168266666667     0.588800000000     0.127466666667   
O      0.047466666667     0.593900000000     0.177933333333   
O      0.289433333333     0.554750000000     0.172566666667   
O      0.023166666667     0.620625000000     0.108833333333   
O      0.264766666667     0.582675000000     0.102300000000   
O      0.195100000000     0.547350000000     0.204906666667   
O      0.209600000000     0.626775000000     0.207483333333   
O      0.165066666667     0.661200000000     0.205866666667   
O      0.285866666667     0.656100000000     0.155400000000   
O      0.043900000000     0.695250000000     0.160766666667   
O      0.310166666667     0.629375000000     0.224500000000   