SimulationType                MonteCarlo
NumberOfCycles                20000
NumberOfInitializationCycles  0
PrintEvery                    1000
PrintPropertiesEvery          1000

Forcefield                    doi10_1038

Framework 0
FrameworkName FORKUU_clean_DDEC
RemoveAtomNumberCodeFromLabel no
UnitCells 2 2 4
ExternalTemperature 298
UseChargesFromCIFFile         yes

Component 0 MoleculeName             CO2
            MoleculeDefinition       ExampleDefinitions
            IdealGasRosenbluthWeight 1
            WidomProbability         1.0
            CreateNumberOfMolecules  0
