%BLOCK LATTICE_CART
ang    # angstrom units
  11.575000000000    0.000000000000     0.000000000000   
 -1.420788240057     12.553856649529    0.000000000000   
 -3.208825558578    -3.207014731415     13.598188116330  
%ENDBLOCK LATTICE_CART

%BLOCK POSITIONS_FRAC
C      0.085533333333     0.088066666667     0.237800000000   
C      0.286666666667     0.289600000000     0.024933333333   
C      0.286766666667     0.016400000000     0.040933333333   
C      0.281933333333     0.020666666667     0.009466666667   
C      0.277766666667     0.324333333333     0.317533333333   
C      0.271533333333     0.326966666667     0.282566666667   
C      0.224033333333     0.324866666667     0.267666666667   
C      0.215633333333     0.332466666667     0.234833333333   
C      0.103700000000     0.297200000000     0.203200000000   
C      0.142133333333     0.299066666667     0.220000000000   
C      0.171100000000     0.329200000000     0.219800000000   
C      0.157733333333     0.020666666667     0.203033333333   
C      0.280266666667     0.291500000000     0.326233333333   
C      0.120066666667     0.017666666667     0.187700000000   
C      0.112633333333     0.169266666667     0.228166666667   
C      0.312366666667     0.287800000000     0.208133333333   
C      0.303666666667     0.246633333333     0.199766666667   
C      0.239266666667     0.227900000000     0.210533333333   
C      0.031566666667     0.258933333333     0.106500000000   
C      0.045700000000     0.224133333333     0.094300000000   
C      0.110366666667     0.216233333333     0.126900000000   
C      0.113133333333     0.194800000000     0.180066666667   
C      0.135866666667     0.188933333333     0.209233333333   
C      0.176033333333     0.200300000000     0.218100000000   
C      0.195833333333     0.216566666667     0.198800000000   
C      0.114466666667     0.121200000000     0.259566666667   
C      0.201000000000     0.123166666667     0.173933333333   
C      0.159233333333     0.112266666667     0.163566666667   
C      0.137500000000     0.116766666667     0.134533333333   
C      0.053066666667     0.041833333333     0.007100000000   
C      0.046666666667     0.043733333333     0.308400000000   
C      0.046566666667     0.316933333333     0.292400000000   
C      0.051400000000     0.312666666667     0.323866666667   
C      0.055566666667     0.009000000000     0.015800000000   
C      0.061800000000     0.006366666667     0.050766666667   
C      0.109300000000     0.008466666667     0.065666666667   
C      0.117700000000     0.000866666667     0.098500000000   
C      0.229633333333     0.036133333333     0.130133333333   
C      0.191200000000     0.034266666667     0.113333333333   
C      0.162233333333     0.004133333333     0.113533333333   
C      0.175600000000     0.312666666667     0.130300000000   
C      0.213266666667     0.315666666667     0.145633333333   
C      0.247800000000     0.245266666667     0.095533333333   
C      0.218866666667     0.212133333333     0.073766666667   
C      0.220700000000     0.164066666667     0.105166666667   
C      0.020966666667     0.045533333333     0.125200000000   
C      0.029666666667     0.086700000000     0.133566666667   
C      0.094066666667     0.105433333333     0.122800000000   
C      0.301766666667     0.074400000000     0.226833333333   
C      0.287633333333     0.109200000000     0.239033333333   
C      0.222966666667     0.117100000000     0.206433333333   
C      0.220200000000     0.138533333333     0.153266666667   
C      0.197466666667     0.144400000000     0.124100000000   
C      0.157300000000     0.133033333333     0.115233333333   
C      0.174100000000     0.221066666667     0.169766666667   
C      0.132333333333     0.210166666667     0.159400000000   
Cu     0.300116666667     0.312340000000     0.095193333333   
Cu     0.035383333333     0.316673333333     0.161186666667   
Cu     0.033216666667     0.020993333333     0.238140000000   
Cu     0.297950000000     0.016660000000     0.172146666667   
H      0.084366666667     0.105366666667     0.164000000000   
H      0.288433333333     0.266933333333     0.029900000000   
H      0.287566666667     0.036666666667     0.057400000000   
H      0.281500000000     0.043766666667     0.005233333333   
H      0.286100000000     0.016433333333     0.281266666667   
H      0.281166666667     0.307033333333     0.270233333333   
H      0.213966666667     0.009133333333     0.282166666667   
H      0.210166666667     0.300766666667     0.266500000000   
H      0.228700000000     0.023633333333     0.236266666667   
H      0.226800000000     0.315533333333     0.220666666667   
H      0.084933333333     0.277400000000     0.202700000000   
H      0.149533333333     0.281400000000     0.231333333333   
H      0.177333333333     0.189633333333     0.093866666667   
H      0.277600000000     0.270400000000     0.310100000000   
H      0.100500000000     0.135233333333     0.273533333333   
H      0.135900000000     0.113066666667     0.273666666667   
H      0.315566666667     0.237300000000     0.182133333333   
H      0.315800000000     0.237766666667     0.218733333333   
H      0.022600000000     0.205266666667     0.083666666667   
H      0.060200000000     0.227633333333     0.078033333333   
H      0.085366666667     0.188533333333     0.174400000000   
H      0.190766666667     0.197066666667     0.237933333333   
H      0.187200000000     0.231666666667     0.156433333333   
H      0.175866666667     0.040400000000     0.202366666667   
H      0.059400000000     0.201133333333     0.131833333333   
H      0.112133333333     0.035400000000     0.176600000000   
H      0.156000000000     0.143700000000     0.239466666667   
H      0.248966666667     0.227966666667     0.169333333333   
H      0.273933333333     0.132200000000     0.201500000000   
H      0.055733333333     0.062933333333     0.023233333333   
H      0.044900000000     0.066400000000     0.303433333333   
H      0.045766666667     0.296666666667     0.275933333333   
H      0.051833333333     0.289566666667     0.328100000000   
H      0.047233333333     0.316900000000     0.052066666667   
H      0.052166666667     0.026300000000     0.063100000000   
H      0.119366666667     0.324200000000     0.051166666667   
H      0.123166666667     0.032566666667     0.066833333333   
H      0.104633333333     0.309700000000     0.097066666667   
H      0.248400000000     0.055933333333     0.130633333333   
H      0.106533333333     0.017800000000     0.112666666667   
H      0.183800000000     0.051933333333     0.102000000000   
H      0.146133333333     0.101666666667     0.176900000000   
H      0.142566666667     0.136266666667     0.095400000000   
H      0.247966666667     0.144800000000     0.158933333333   
H      0.273133333333     0.105700000000     0.255300000000   
H      0.017533333333     0.095566666667     0.114600000000   
H      0.310733333333     0.128066666667     0.249666666667   
H      0.197433333333     0.220266666667     0.059666666667   
H      0.232833333333     0.198100000000     0.059800000000   
H      0.221200000000     0.297933333333     0.156733333333   
H      0.157466666667     0.292933333333     0.130966666667   
H      0.017766666667     0.096033333333     0.151200000000   
N      0.042933333333     0.015566666667     0.284266666667   
N      0.241633333333     0.011033333333     0.145833333333   
N      0.072533333333     0.100366666667     0.143433333333   
N      0.201200000000     0.188100000000     0.091833333333   
N      0.262300000000     0.121200000000     0.213466666667   
N      0.260800000000     0.232966666667     0.189900000000   
N      0.091700000000     0.322300000000     0.187500000000   
N      0.132133333333     0.145233333333     0.241500000000   
N      0.071033333333     0.212133333333     0.119866666667   
N      0.290400000000     0.317766666667     0.049066666667   
O      0.260333333333     0.247133333333     0.125076666667   
O      0.253500000000     0.159366666667     0.102283333333   
O      0.317166666667     0.032266666667     0.111766666667   
O      0.047533333333     0.027000000000     0.132313333333   
O      0.077266666667     0.101033333333     0.092540000000   
O      0.322166666667     0.061166666667     0.247776666667   
O      0.291666666667     0.062600000000     0.197000000000   
O      0.203533333333     0.108333333333     0.225533333333   
O      0.310566666667     0.309233333333     0.141060000000   
O      0.073000000000     0.086200000000     0.208256666667   
O      0.079833333333     0.173966666667     0.231050000000   
O      0.016166666667     0.301066666667     0.221566666667   
O      0.285800000000     0.306333333333     0.201020000000   
O      0.256066666667     0.232300000000     0.240793333333   
O      0.011166666667     0.272166666667     0.085556666667   
O      0.041666666667     0.270733333333     0.136333333333   
O      0.129800000000     0.225000000000     0.107800000000   
O      0.256400000000     0.269133333333     0.080600000000   
O      0.076933333333     0.064200000000     0.252733333333   
O      0.022766666667     0.024100000000     0.192273333333   
C      0.085533333333     0.088066666667     0.571133333333   
C      0.286666666667     0.289600000000     0.358266666667   
C      0.286766666667     0.016400000000     0.374266666667   
C      0.281933333333     0.020666666667     0.342800000000   
C      0.277766666667     0.324333333333     0.650866666667   
C      0.271533333333     0.326966666667     0.615900000000   
C      0.224033333333     0.324866666667     0.601000000000   
C      0.215633333333     0.332466666667     0.568166666667   
C      0.103700000000     0.297200000000     0.536533333333   
C      0.142133333333     0.299066666667     0.553333333333   
C      0.171100000000     0.329200000000     0.553133333333   
C      0.157733333333     0.020666666667     0.536366666667   
C      0.280266666667     0.291500000000     0.659566666667   
C      0.120066666667     0.017666666667     0.521033333333   
C      0.112633333333     0.169266666667     0.561500000000   
C      0.312366666667     0.287800000000     0.541466666667   
C      0.303666666667     0.246633333333     0.533100000000   
C      0.239266666667     0.227900000000     0.543866666667   
C      0.031566666667     0.258933333333     0.439833333333   
C      0.045700000000     0.224133333333     0.427633333333   
C      0.110366666667     0.216233333333     0.460233333333   
C      0.113133333333     0.194800000000     0.513400000000   
C      0.135866666667     0.188933333333     0.542566666667   
C      0.176033333333     0.200300000000     0.551433333333   
C      0.195833333333     0.216566666667     0.532133333333   
C      0.114466666667     0.121200000000     0.592900000000   
C      0.201000000000     0.123166666667     0.507266666667   
C      0.159233333333     0.112266666667     0.496900000000   
C      0.137500000000     0.116766666667     0.467866666667   
C      0.053066666667     0.041833333333     0.340433333333   
C      0.046666666667     0.043733333333     0.641733333333   
C      0.046566666667     0.316933333333     0.625733333333   
C      0.051400000000     0.312666666667     0.657200000000   
C      0.055566666667     0.009000000000     0.349133333333   
C      0.061800000000     0.006366666667     0.384100000000   
C      0.109300000000     0.008466666667     0.399000000000   
C      0.117700000000     0.000866666667     0.431833333333   
C      0.229633333333     0.036133333333     0.463466666667   
C      0.191200000000     0.034266666667     0.446666666667   
C      0.162233333333     0.004133333333     0.446866666667   
C      0.175600000000     0.312666666667     0.463633333333   
C      0.213266666667     0.315666666667     0.478966666667   
C      0.247800000000     0.245266666667     0.428866666667   
C      0.218866666667     0.212133333333     0.407100000000   
C      0.220700000000     0.164066666667     0.438500000000   
C      0.020966666667     0.045533333333     0.458533333333   
C      0.029666666667     0.086700000000     0.466900000000   
C      0.094066666667     0.105433333333     0.456133333333   
C      0.301766666667     0.074400000000     0.560166666667   
C      0.287633333333     0.109200000000     0.572366666667   
C      0.222966666667     0.117100000000     0.539766666667   
C      0.220200000000     0.138533333333     0.486600000000   
C      0.197466666667     0.144400000000     0.457433333333   
C      0.157300000000     0.133033333333     0.448566666667   
C      0.174100000000     0.221066666667     0.503100000000   
C      0.132333333333     0.210166666667     0.492733333333   
Cu     0.300116666667     0.312340000000     0.428526666667   
Cu     0.035383333333     0.316673333333     0.494520000000   
Cu     0.033216666667     0.020993333333     0.571473333333   
Cu     0.297950000000     0.016660000000     0.505480000000   
H      0.084366666667     0.105366666667     0.497333333333   
H      0.288433333333     0.266933333333     0.363233333333   
H      0.287566666667     0.036666666667     0.390733333333   
H      0.281500000000     0.043766666667     0.338566666667   
H      0.286100000000     0.016433333333     0.614600000000   
H      0.281166666667     0.307033333333     0.603566666667   
H      0.213966666667     0.009133333333     0.615500000000   
H      0.210166666667     0.300766666667     0.599833333333   
H      0.228700000000     0.023633333333     0.569600000000   
H      0.226800000000     0.315533333333     0.554000000000   
H      0.084933333333     0.277400000000     0.536033333333   
H      0.149533333333     0.281400000000     0.564666666667   
H      0.177333333333     0.189633333333     0.427200000000   
H      0.277600000000     0.270400000000     0.643433333333   
H      0.100500000000     0.135233333333     0.606866666667   
H      0.135900000000     0.113066666667     0.607000000000   
H      0.315566666667     0.237300000000     0.515466666667   
H      0.315800000000     0.237766666667     0.552066666667   
H      0.022600000000     0.205266666667     0.417000000000   
H      0.060200000000     0.227633333333     0.411366666667   
H      0.085366666667     0.188533333333     0.507733333333   
H      0.190766666667     0.197066666667     0.571266666667   
H      0.187200000000     0.231666666667     0.489766666667   
H      0.175866666667     0.040400000000     0.535700000000   
H      0.059400000000     0.201133333333     0.465166666667   
H      0.112133333333     0.035400000000     0.509933333333   
H      0.156000000000     0.143700000000     0.572800000000   
H      0.248966666667     0.227966666667     0.502666666667   
H      0.273933333333     0.132200000000     0.534833333333   
H      0.055733333333     0.062933333333     0.356566666667   
H      0.044900000000     0.066400000000     0.636766666667   
H      0.045766666667     0.296666666667     0.609266666667   
H      0.051833333333     0.289566666667     0.661433333333   
H      0.047233333333     0.316900000000     0.385400000000   
H      0.052166666667     0.026300000000     0.396433333333   
H      0.119366666667     0.324200000000     0.384500000000   
H      0.123166666667     0.032566666667     0.400166666667   
H      0.104633333333     0.309700000000     0.430400000000   
H      0.248400000000     0.055933333333     0.463966666667   
H      0.106533333333     0.017800000000     0.446000000000   
H      0.183800000000     0.051933333333     0.435333333333   
H      0.146133333333     0.101666666667     0.510233333333   
H      0.142566666667     0.136266666667     0.428733333333   
H      0.247966666667     0.144800000000     0.492266666667   
H      0.273133333333     0.105700000000     0.588633333333   
H      0.017533333333     0.095566666667     0.447933333333   
H      0.310733333333     0.128066666667     0.583000000000   
H      0.197433333333     0.220266666667     0.393000000000   
H      0.232833333333     0.198100000000     0.393133333333   
H      0.221200000000     0.297933333333     0.490066666667   
H      0.157466666667     0.292933333333     0.464300000000   
H      0.017766666667     0.096033333333     0.484533333333   
N      0.042933333333     0.015566666667     0.617600000000   
N      0.241633333333     0.011033333333     0.479166666667   
N      0.072533333333     0.100366666667     0.476766666667   
N      0.201200000000     0.188100000000     0.425166666667   
N      0.262300000000     0.121200000000     0.546800000000   
N      0.260800000000     0.232966666667     0.523233333333   
N      0.091700000000     0.322300000000     0.520833333333   
N      0.132133333333     0.145233333333     0.574833333333   
N      0.071033333333     0.212133333333     0.453200000000   
N      0.290400000000     0.317766666667     0.382400000000   
O      0.260333333333     0.247133333333     0.458410000000   
O      0.253500000000     0.159366666667     0.435616666667   
O      0.317166666667     0.032266666667     0.445100000000   
O      0.047533333333     0.027000000000     0.465646666667   
O      0.077266666667     0.101033333333     0.425873333333   
O      0.322166666667     0.061166666667     0.581110000000   
O      0.291666666667     0.062600000000     0.530333333333   
O      0.203533333333     0.108333333333     0.558866666667   
O      0.310566666667     0.309233333333     0.474393333333   
O      0.073000000000     0.086200000000     0.541590000000   
O      0.079833333333     0.173966666667     0.564383333333   
O      0.016166666667     0.301066666667     0.554900000000   
O      0.285800000000     0.306333333333     0.534353333333   
O      0.256066666667     0.232300000000     0.574126666667   
O      0.011166666667     0.272166666667     0.418890000000   
O      0.041666666667     0.270733333333     0.469666666667   
O      0.129800000000     0.225000000000     0.441133333333   
O      0.256400000000     0.269133333333     0.413933333333   
O      0.076933333333     0.064200000000     0.586066666667   
O      0.022766666667     0.024100000000     0.525606666667   
C      0.085533333333     0.088066666667     0.904466666667   
C      0.286666666667     0.289600000000     0.691600000000   
C      0.286766666667     0.016400000000     0.707600000000   
C      0.281933333333     0.020666666667     0.676133333333   
C      0.277766666667     0.324333333333     0.984200000000   
C      0.271533333333     0.326966666667     0.949233333333   
C      0.224033333333     0.324866666667     0.934333333333   
C      0.215633333333     0.332466666667     0.901500000000   
C      0.103700000000     0.297200000000     0.869866666667   
C      0.142133333333     0.299066666667     0.886666666667   
C      0.171100000000     0.329200000000     0.886466666667   
C      0.157733333333     0.020666666667     0.869700000000   
C      0.280266666667     0.291500000000     0.992900000000   
C      0.120066666667     0.017666666667     0.854366666667   
C      0.112633333333     0.169266666667     0.894833333333   
C      0.312366666667     0.287800000000     0.874800000000   
C      0.303666666667     0.246633333333     0.866433333333   
C      0.239266666667     0.227900000000     0.877200000000   
C      0.031566666667     0.258933333333     0.773166666667   
C      0.045700000000     0.224133333333     0.760966666667   
C      0.110366666667     0.216233333333     0.793566666667   
C      0.113133333333     0.194800000000     0.846733333333   
C      0.135866666667     0.188933333333     0.875900000000   
C      0.176033333333     0.200300000000     0.884766666667   
C      0.195833333333     0.216566666667     0.865466666667   
C      0.114466666667     0.121200000000     0.926233333333   
C      0.201000000000     0.123166666667     0.840600000000   
C      0.159233333333     0.112266666667     0.830233333333   
C      0.137500000000     0.116766666667     0.801200000000   
C      0.053066666667     0.041833333333     0.673766666667   
C      0.046666666667     0.043733333333     0.975066666667   
C      0.046566666667     0.316933333333     0.959066666667   
C      0.051400000000     0.312666666667     0.990533333333   
C      0.055566666667     0.009000000000     0.682466666667   
C      0.061800000000     0.006366666667     0.717433333333   
C      0.109300000000     0.008466666667     0.732333333333   
C      0.117700000000     0.000866666667     0.765166666667   
C      0.229633333333     0.036133333333     0.796800000000   
C      0.191200000000     0.034266666667     0.780000000000   
C      0.162233333333     0.004133333333     0.780200000000   
C      0.175600000000     0.312666666667     0.796966666667   
C      0.213266666667     0.315666666667     0.812300000000   
C      0.247800000000     0.245266666667     0.762200000000   
C      0.218866666667     0.212133333333     0.740433333333   
C      0.220700000000     0.164066666667     0.771833333333   
C      0.020966666667     0.045533333333     0.791866666667   
C      0.029666666667     0.086700000000     0.800233333333   
C      0.094066666667     0.105433333333     0.789466666667   
C      0.301766666667     0.074400000000     0.893500000000   
C      0.287633333333     0.109200000000     0.905700000000   
C      0.222966666667     0.117100000000     0.873100000000   
C      0.220200000000     0.138533333333     0.819933333333   
C      0.197466666667     0.144400000000     0.790766666667   
C      0.157300000000     0.133033333333     0.781900000000   
C      0.174100000000     0.221066666667     0.836433333333   
C      0.132333333333     0.210166666667     0.826066666667   
Cu     0.300116666667     0.312340000000     0.761860000000   
Cu     0.035383333333     0.316673333333     0.827853333333   
Cu     0.033216666667     0.020993333333     0.904806666667   
Cu     0.297950000000     0.016660000000     0.838813333333   
H      0.084366666667     0.105366666667     0.830666666667   
H      0.288433333333     0.266933333333     0.696566666667   
H      0.287566666667     0.036666666667     0.724066666667   
H      0.281500000000     0.043766666667     0.671900000000   
H      0.286100000000     0.016433333333     0.947933333333   
H      0.281166666667     0.307033333333     0.936900000000   
H      0.213966666667     0.009133333333     0.948833333333   
H      0.210166666667     0.300766666667     0.933166666667   
H      0.228700000000     0.023633333333     0.902933333333   
H      0.226800000000     0.315533333333     0.887333333333   
H      0.084933333333     0.277400000000     0.869366666667   
H      0.149533333333     0.281400000000     0.898000000000   
H      0.177333333333     0.189633333333     0.760533333333   
H      0.277600000000     0.270400000000     0.976766666667   
H      0.100500000000     0.135233333333     0.940200000000   
H      0.135900000000     0.113066666667     0.940333333333   
H      0.315566666667     0.237300000000     0.848800000000   
H      0.315800000000     0.237766666667     0.885400000000   
H      0.022600000000     0.205266666667     0.750333333333   
H      0.060200000000     0.227633333333     0.744700000000   
H      0.085366666667     0.188533333333     0.841066666667   
H      0.190766666667     0.197066666667     0.904600000000   
H      0.187200000000     0.231666666667     0.823100000000   
H      0.175866666667     0.040400000000     0.869033333333   
H      0.059400000000     0.201133333333     0.798500000000   
H      0.112133333333     0.035400000000     0.843266666667   
H      0.156000000000     0.143700000000     0.906133333333   
H      0.248966666667     0.227966666667     0.836000000000   
H      0.273933333333     0.132200000000     0.868166666667   
H      0.055733333333     0.062933333333     0.689900000000   
H      0.044900000000     0.066400000000     0.970100000000   
H      0.045766666667     0.296666666667     0.942600000000   
H      0.051833333333     0.289566666667     0.994766666667   
H      0.047233333333     0.316900000000     0.718733333333   
H      0.052166666667     0.026300000000     0.729766666667   
H      0.119366666667     0.324200000000     0.717833333333   
H      0.123166666667     0.032566666667     0.733500000000   
H      0.104633333333     0.309700000000     0.763733333333   
H      0.248400000000     0.055933333333     0.797300000000   
H      0.106533333333     0.017800000000     0.779333333333   
H      0.183800000000     0.051933333333     0.768666666667   
H      0.146133333333     0.101666666667     0.843566666667   
H      0.142566666667     0.136266666667     0.762066666667   
H      0.247966666667     0.144800000000     0.825600000000   
H      0.273133333333     0.105700000000     0.921966666667   
H      0.017533333333     0.095566666667     0.781266666667   
H      0.310733333333     0.128066666667     0.916333333333   
H      0.197433333333     0.220266666667     0.726333333333   
H      0.232833333333     0.198100000000     0.726466666667   
H      0.221200000000     0.297933333333     0.823400000000   
H      0.157466666667     0.292933333333     0.797633333333   
H      0.017766666667     0.096033333333     0.817866666667   
N      0.042933333333     0.015566666667     0.950933333333   
N      0.241633333333     0.011033333333     0.812500000000   
N      0.072533333333     0.100366666667     0.810100000000   
N      0.201200000000     0.188100000000     0.758500000000   
N      0.262300000000     0.121200000000     0.880133333333   
N      0.260800000000     0.232966666667     0.856566666667   
N      0.091700000000     0.322300000000     0.854166666667   
N      0.132133333333     0.145233333333     0.908166666667   
N      0.071033333333     0.212133333333     0.786533333333   
N      0.290400000000     0.317766666667     0.715733333333   
O      0.260333333333     0.247133333333     0.791743333333   
O      0.253500000000     0.159366666667     0.768950000000   
O      0.317166666667     0.032266666667     0.778433333333   
O      0.047533333333     0.027000000000     0.798980000000   
O      0.077266666667     0.101033333333     0.759206666667   
O      0.322166666667     0.061166666667     0.914443333333   
O      0.291666666667     0.062600000000     0.863666666667   
O      0.203533333333     0.108333333333     0.892200000000   
O      0.310566666667     0.309233333333     0.807726666667   
O      0.073000000000     0.086200000000     0.874923333333   
O      0.079833333333     0.173966666667     0.897716666667   
O      0.016166666667     0.301066666667     0.888233333333   
O      0.285800000000     0.306333333333     0.867686666667   
O      0.256066666667     0.232300000000     0.907460000000   
O      0.011166666667     0.272166666667     0.752223333333   
O      0.041666666667     0.270733333333     0.803000000000   
O      0.129800000000     0.225000000000     0.774466666667   
O      0.256400000000     0.269133333333     0.747266666667   
O      0.076933333333     0.064200000000     0.919400000000   
O      0.022766666667     0.024100000000     0.858940000000   
C      0.085533333333     0.421400000000     0.237800000000   
C      0.286666666667     0.622933333333     0.024933333333   
C      0.286766666667     0.349733333333     0.040933333333   
C      0.281933333333     0.354000000000     0.009466666667   
C      0.277766666667     0.657666666667     0.317533333333   
C      0.271533333333     0.660300000000     0.282566666667   
C      0.224033333333     0.658200000000     0.267666666667   
C      0.215633333333     0.665800000000     0.234833333333   
C      0.103700000000     0.630533333333     0.203200000000   
C      0.142133333333     0.632400000000     0.220000000000   
C      0.171100000000     0.662533333333     0.219800000000   
C      0.157733333333     0.354000000000     0.203033333333   
C      0.280266666667     0.624833333333     0.326233333333   
C      0.120066666667     0.351000000000     0.187700000000   
C      0.112633333333     0.502600000000     0.228166666667   
C      0.312366666667     0.621133333333     0.208133333333   
C      0.303666666667     0.579966666667     0.199766666667   
C      0.239266666667     0.561233333333     0.210533333333   
C      0.031566666667     0.592266666667     0.106500000000   
C      0.045700000000     0.557466666667     0.094300000000   
C      0.110366666667     0.549566666667     0.126900000000   
C      0.113133333333     0.528133333333     0.180066666667   
C      0.135866666667     0.522266666667     0.209233333333   
C      0.176033333333     0.533633333333     0.218100000000   
C      0.195833333333     0.549900000000     0.198800000000   
C      0.114466666667     0.454533333333     0.259566666667   
C      0.201000000000     0.456500000000     0.173933333333   
C      0.159233333333     0.445600000000     0.163566666667   
C      0.137500000000     0.450100000000     0.134533333333   
C      0.053066666667     0.375166666667     0.007100000000   
C      0.046666666667     0.377066666667     0.308400000000   
C      0.046566666667     0.650266666667     0.292400000000   
C      0.051400000000     0.646000000000     0.323866666667   
C      0.055566666667     0.342333333333     0.015800000000   
C      0.061800000000     0.339700000000     0.050766666667   
C      0.109300000000     0.341800000000     0.065666666667   
C      0.117700000000     0.334200000000     0.098500000000   
C      0.229633333333     0.369466666667     0.130133333333   
C      0.191200000000     0.367600000000     0.113333333333   
C      0.162233333333     0.337466666667     0.113533333333   
C      0.175600000000     0.646000000000     0.130300000000   
C      0.213266666667     0.649000000000     0.145633333333   
C      0.247800000000     0.578600000000     0.095533333333   
C      0.218866666667     0.545466666667     0.073766666667   
C      0.220700000000     0.497400000000     0.105166666667   
C      0.020966666667     0.378866666667     0.125200000000   