%BLOCK LATTICE_CART
ang    # angstrom units
  19.739000000000    0.000000000000     0.000000000000   
  0.000000000000     19.739000000000    0.000000000000   
  0.000000000000     0.000000000000     7.476800000000   
%ENDBLOCK LATTICE_CART

%BLOCK POSITIONS_FRAC
C      0.392950000000     0.000000000000     0.038200000000   
C      0.107050000000     0.000000000000     0.211800000000   
C      0.177300000000     0.468750000000     0.000000000000   
C      0.214850000000     0.468600000000     0.000000000000   
C      0.232100000000     0.439450000000     0.000000000000   
C      0.427750000000     0.000000000000     0.036550000000   
C      0.031250000000     0.177300000000     0.000000000000   
C      0.031400000000     0.214850000000     0.000000000000   
C      0.060550000000     0.232100000000     0.000000000000   
C      0.000000000000     0.392950000000     0.211800000000   
C      0.468750000000     0.322700000000     0.000000000000   
C      0.468600000000     0.285150000000     0.000000000000   
C      0.439450000000     0.267900000000     0.000000000000   
C      0.267900000000     0.060550000000     0.000000000000   
C      0.000000000000     0.392950000000     0.038200000000   
C      0.124550000000     0.000000000000     0.000000000000   
C      0.232150000000     0.000000000000     0.000000000000   
C      0.000000000000     0.107050000000     0.211800000000   
C      0.375450000000     0.000000000000     0.000000000000   
C      0.267850000000     0.000000000000     0.000000000000   
C      0.000000000000     0.072250000000     0.213450000000   
C      0.000000000000     0.124550000000     0.000000000000   
C      0.000000000000     0.232150000000     0.000000000000   
C      0.392950000000     0.000000000000     0.211800000000   
C      0.000000000000     0.375450000000     0.000000000000   
C      0.000000000000     0.267850000000     0.000000000000   
C      0.072250000000     0.000000000000     0.213450000000   
C      0.000000000000     0.427750000000     0.213450000000   
C      0.285150000000     0.031400000000     0.000000000000   
C      0.427750000000     0.000000000000     0.213450000000   
C      0.072250000000     0.000000000000     0.036550000000   
C      0.177300000000     0.031250000000     0.000000000000   
C      0.214850000000     0.031400000000     0.000000000000   
C      0.232100000000     0.060550000000     0.000000000000   
C      0.000000000000     0.107050000000     0.038200000000   
C      0.322700000000     0.031250000000     0.000000000000   
C      0.322700000000     0.468750000000     0.000000000000   
C      0.285150000000     0.468600000000     0.000000000000   
C      0.267900000000     0.439450000000     0.000000000000   
C      0.000000000000     0.427750000000     0.036550000000   
C      0.468750000000     0.177300000000     0.000000000000   
C      0.000000000000     0.072250000000     0.036550000000   
C      0.439450000000     0.232100000000     0.000000000000   
C      0.107050000000     0.000000000000     0.038200000000   
C      0.031250000000     0.322700000000     0.000000000000   
C      0.031400000000     0.285150000000     0.000000000000   
C      0.060550000000     0.267900000000     0.000000000000   
C      0.468600000000     0.214850000000     0.000000000000   
F      0.029910000000     0.029910000000     0.125000000000   
F      0.000000000000     0.000000000000     0.182125000000   
F      0.000000000000     0.000000000000     0.067875000000   
F      0.470090000000     0.470090000000     0.125000000000   
F      0.470090000000     0.029910000000     0.125000000000   
F      0.029910000000     0.470090000000     0.125000000000   
H      0.381550000000     0.000000000000     0.183850000000   
H      0.000000000000     0.439750000000     0.064075000000   
H      0.439750000000     0.000000000000     0.185925000000   
H      0.000000000000     0.439750000000     0.185925000000   
H      0.000000000000     0.118450000000     0.183850000000   
H      0.000000000000     0.118450000000     0.066150000000   
H      0.000000000000     0.060250000000     0.064075000000   
H      0.000000000000     0.381550000000     0.183850000000   
H      0.118450000000     0.000000000000     0.066150000000   
H      0.439750000000     0.000000000000     0.064075000000   
H      0.381550000000     0.000000000000     0.066150000000   
H      0.060250000000     0.000000000000     0.064075000000   
H      0.000000000000     0.060250000000     0.185925000000   
H      0.418550000000     0.279800000000     0.000000000000   
H      0.000000000000     0.381550000000     0.066150000000   
H      0.060250000000     0.000000000000     0.185925000000   
H      0.081450000000     0.279800000000     0.000000000000   
H      0.279800000000     0.081450000000     0.000000000000   
H      0.118450000000     0.000000000000     0.183850000000   
H      0.220200000000     0.418550000000     0.000000000000   
H      0.220200000000     0.081450000000     0.000000000000   
H      0.081450000000     0.220200000000     0.000000000000   
H      0.279800000000     0.418550000000     0.000000000000   
H      0.418550000000     0.220200000000     0.000000000000   
N      0.161300000000     0.000000000000     0.000000000000   
N      0.445200000000     0.000000000000     0.000000000000   
N      0.338700000000     0.000000000000     0.000000000000   
N      0.000000000000     0.054800000000     0.000000000000   
N      0.000000000000     0.161300000000     0.000000000000   
N      0.000000000000     0.445200000000     0.000000000000   
N      0.000000000000     0.338700000000     0.000000000000   
N      0.054800000000     0.000000000000     0.000000000000   
O      0.339150000000     0.442550000000     0.000000000000   
O      0.160850000000     0.057450000000     0.000000000000   
O      0.160850000000     0.442550000000     0.000000000000   
O      0.057450000000     0.339150000000     0.000000000000   
O      0.339150000000     0.057450000000     0.000000000000   
O      0.057450000000     0.160850000000     0.000000000000   
O      0.442550000000     0.339150000000     0.000000000000   
O      0.442550000000     0.160850000000     0.000000000000   
Si     0.000000000000     0.000000000000     0.125000000000   
Zn     0.000000000000     0.000000000000     0.000000000000   
C      0.392950000000     0.000000000000     0.288200000000   
C      0.107050000000     0.000000000000     0.461800000000   
C      0.177300000000     0.468750000000     0.250000000000   
C      0.214850000000     0.468600000000     0.250000000000   
C      0.232100000000     0.439450000000     0.250000000000   
C      0.427750000000     0.000000000000     0.286550000000   
C      0.031250000000     0.177300000000     0.250000000000   
C      0.031400000000     0.214850000000     0.250000000000   
C      0.060550000000     0.232100000000     0.250000000000   
C      0.000000000000     0.392950000000     0.461800000000   
C      0.468750000000     0.322700000000     0.250000000000   
C      0.468600000000     0.285150000000     0.250000000000   
C      0.439450000000     0.267900000000     0.250000000000   
C      0.267900000000     0.060550000000     0.250000000000   
C      0.000000000000     0.392950000000     0.288200000000   
C      0.124550000000     0.000000000000     0.250000000000   
C      0.232150000000     0.000000000000     0.250000000000   
C      0.000000000000     0.107050000000     0.461800000000   
C      0.375450000000     0.000000000000     0.250000000000   
C      0.267850000000     0.000000000000     0.250000000000   
C      0.000000000000     0.072250000000     0.463450000000   
C      0.000000000000     0.124550000000     0.250000000000   
C      0.000000000000     0.232150000000     0.250000000000   
C      0.392950000000     0.000000000000     0.461800000000   
C      0.000000000000     0.375450000000     0.250000000000   
C      0.000000000000     0.267850000000     0.250000000000   
C      0.072250000000     0.000000000000     0.463450000000   
C      0.000000000000     0.427750000000     0.463450000000   
C      0.285150000000     0.031400000000     0.250000000000   
C      0.427750000000     0.000000000000     0.463450000000   
C      0.072250000000     0.000000000000     0.286550000000   
C      0.177300000000     0.031250000000     0.250000000000   
C      0.214850000000     0.031400000000     0.250000000000   
C      0.232100000000     0.060550000000     0.250000000000   
C      0.000000000000     0.107050000000     0.288200000000   
C      0.322700000000     0.031250000000     0.250000000000   
C      0.322700000000     0.468750000000     0.250000000000   
C      0.285150000000     0.468600000000     0.250000000000   
C      0.267900000000     0.439450000000     0.250000000000   
C      0.000000000000     0.427750000000     0.286550000000   
C      0.468750000000     0.177300000000     0.250000000000   
C      0.000000000000     0.072250000000     0.286550000000   
C      0.439450000000     0.232100000000     0.250000000000   
C      0.107050000000     0.000000000000     0.288200000000   
C      0.031250000000     0.322700000000     0.250000000000   
C      0.031400000000     0.285150000000     0.250000000000   
C      0.060550000000     0.267900000000     0.250000000000   
C      0.468600000000     0.214850000000     0.250000000000   
F      0.029910000000     0.029910000000     0.375000000000   
F      0.000000000000     0.000000000000     0.432125000000   
F      0.000000000000     0.000000000000     0.317875000000   
F      0.470090000000     0.470090000000     0.375000000000   
F      0.470090000000     0.029910000000     0.375000000000   
F      0.029910000000     0.470090000000     0.375000000000   
H      0.381550000000     0.000000000000     0.433850000000   
H      0.000000000000     0.439750000000     0.314075000000   
H      0.439750000000     0.000000000000     0.435925000000   
H      0.000000000000     0.439750000000     0.435925000000   
H      0.000000000000     0.118450000000     0.433850000000   
H      0.000000000000     0.118450000000     0.316150000000   
H      0.000000000000     0.060250000000     0.314075000000   
H      0.000000000000     0.381550000000     0.433850000000   
H      0.118450000000     0.000000000000     0.316150000000   
H      0.439750000000     0.000000000000     0.314075000000   
H      0.381550000000     0.000000000000     0.316150000000   
H      0.060250000000     0.000000000000     0.314075000000   
H      0.000000000000     0.060250000000     0.435925000000   
H      0.418550000000     0.279800000000     0.250000000000   
H      0.000000000000     0.381550000000     0.316150000000   
H      0.060250000000     0.000000000000     0.435925000000   
H      0.081450000000     0.279800000000     0.250000000000   
H      0.279800000000     0.081450000000     0.250000000000   
H      0.118450000000     0.000000000000     0.433850000000   
H      0.220200000000     0.418550000000     0.250000000000   
H      0.220200000000     0.081450000000     0.250000000000   
H      0.081450000000     0.220200000000     0.250000000000   
H      0.279800000000     0.418550000000     0.250000000000   
H      0.418550000000     0.220200000000     0.250000000000   
N      0.161300000000     0.000000000000     0.250000000000   
N      0.445200000000     0.000000000000     0.250000000000   
N      0.338700000000     0.000000000000     0.250000000000   
N      0.000000000000     0.054800000000     0.250000000000   
N      0.000000000000     0.161300000000     0.250000000000   
N      0.000000000000     0.445200000000     0.250000000000   
N      0.000000000000     0.338700000000     0.250000000000   
N      0.054800000000     0.000000000000     0.250000000000   
O      0.339150000000     0.442550000000     0.250000000000   
O      0.160850000000     0.057450000000     0.250000000000   
O      0.160850000000     0.442550000000     0.250000000000   
O      0.057450000000     0.339150000000     0.250000000000   
O      0.339150000000     0.057450000000     0.250000000000   
O      0.057450000000     0.160850000000     0.250000000000   
O      0.442550000000     0.339150000000     0.250000000000   
O      0.442550000000     0.160850000000     0.250000000000   
Si     0.000000000000     0.000000000000     0.375000000000   
Zn     0.000000000000     0.000000000000     0.250000000000   
C      0.392950000000     0.000000000000     0.538200000000   
C      0.107050000000     0.000000000000     0.711800000000   
C      0.177300000000     0.468750000000     0.500000000000   
C      0.214850000000     0.468600000000     0.500000000000   
C      0.232100000000     0.439450000000     0.500000000000   
C      0.427750000000     0.000000000000     0.536550000000   
C      0.031250000000     0.177300000000     0.500000000000   
C      0.031400000000     0.214850000000     0.500000000000   
C      0.060550000000     0.232100000000     0.500000000000   
C      0.000000000000     0.392950000000     0.711800000000   
C      0.468750000000     0.322700000000     0.500000000000   
C      0.468600000000     0.285150000000     0.500000000000   
C      0.439450000000     0.267900000000     0.500000000000   
C      0.267900000000     0.060550000000     0.500000000000   
C      0.000000000000     0.392950000000     0.538200000000   
C      0.124550000000     0.000000000000     0.500000000000   
C      0.232150000000     0.000000000000     0.500000000000   
C      0.000000000000     0.107050000000     0.711800000000   
C      0.375450000000     0.000000000000     0.500000000000   
C      0.267850000000     0.000000000000     0.500000000000   
C      0.000000000000     0.072250000000     0.713450000000   
C      0.000000000000     0.124550000000     0.500000000000   
C      0.000000000000     0.232150000000     0.500000000000   
C      0.392950000000     0.000000000000     0.711800000000   
C      0.000000000000     0.375450000000     0.500000000000   
C      0.000000000000     0.267850000000     0.500000000000   
C      0.072250000000     0.000000000000     0.713450000000   
C      0.000000000000     0.427750000000     0.713450000000   
C      0.285150000000     0.031400000000     0.500000000000   
C      0.427750000000     0.000000000000     0.713450000000   
C      0.072250000000     0.000000000000     0.536550000000   
C      0.177300000000     0.031250000000     0.500000000000   
C      0.214850000000     0.031400000000     0.500000000000   
C      0.232100000000     0.060550000000     0.500000000000   
C      0.000000000000     0.107050000000     0.538200000000   
C      0.322700000000     0.031250000000     0.500000000000   
C      0.322700000000     0.468750000000     0.500000000000   
C      0.285150000000     0.468600000000     0.500000000000   
C      0.267900000000     0.439450000000     0.500000000000   
C      0.000000000000     0.427750000000     0.536550000000   
C      0.468750000000     0.177300000000     0.500000000000   
C      0.000000000000     0.072250000000     0.536550000000   
C      0.439450000000     0.232100000000     0.500000000000   
C      0.107050000000     0.000000000000     0.538200000000   
C      0.031250000000     0.322700000000     0.500000000000   
C      0.031400000000     0.285150000000     0.500000000000   
C      0.060550000000     0.267900000000     0.500000000000   
C      0.468600000000     0.214850000000     0.500000000000   
F      0.029910000000     0.029910000000     0.625000000000   
F      0.000000000000     0.000000000000     0.682125000000   
F      0.000000000000     0.000000000000     0.567875000000   
F      0.470090000000     0.470090000000     0.625000000000   
F      0.470090000000     0.029910000000     0.625000000000   
F      0.029910000000     0.470090000000     0.625000000000   
H      0.381550000000     0.000000000000     0.683850000000   
H      0.000000000000     0.439750000000     0.564075000000   
H      0.439750000000     0.000000000000     0.685925000000   
H      0.000000000000     0.439750000000     0.685925000000   
H      0.000000000000     0.118450000000     0.683850000000   
H      0.000000000000     0.118450000000     0.566150000000   
H      0.000000000000     0.060250000000     0.564075000000   
H      0.000000000000     0.381550000000     0.683850000000   
H      0.118450000000     0.000000000000     0.566150000000   
H      0.439750000000     0.000000000000     0.564075000000   
H      0.381550000000     0.000000000000     0.566150000000   
H      0.060250000000     0.000000000000     0.564075000000   
H      0.000000000000     0.060250000000     0.685925000000   
H      0.418550000000     0.279800000000     0.500000000000   
H      0.000000000000     0.381550000000     0.566150000000   
H      0.060250000000     0.000000000000     0.685925000000   
H      0.081450000000     0.279800000000     0.500000000000   
H      0.279800000000     0.081450000000     0.500000000000   
H      0.118450000000     0.000000000000     0.683850000000   
H      0.220200000000     0.418550000000     0.500000000000   
H      0.220200000000     0.081450000000     0.500000000000   
H      0.081450000000     0.220200000000     0.500000000000   
H      0.279800000000     0.418550000000     0.500000000000   
H      0.418550000000     0.220200000000     0.500000000000   
N      0.161300000000     0.000000000000     0.500000000000   
N      0.445200000000     0.000000000000     0.500000000000   
N      0.338700000000     0.000000000000     0.500000000000   
N      0.000000000000     0.054800000000     0.500000000000   
N      0.000000000000     0.161300000000     0.500000000000   
N      0.000000000000     0.445200000000     0.500000000000   
N      0.000000000000     0.338700000000     0.500000000000   
N      0.054800000000     0.000000000000     0.500000000000   
O      0.339150000000     0.442550000000     0.500000000000   
O      0.160850000000     0.057450000000     0.500000000000   
O      0.160850000000     0.442550000000     0.500000000000   
O      0.057450000000     0.339150000000     0.500000000000   
O      0.339150000000     0.057450000000     0.500000000000   
O      0.057450000000     0.160850000000     0.500000000000   
O      0.442550000000     0.339150000000     0.500000000000   
O      0.442550000000     0.160850000000     0.500000000000   
Si     0.000000000000     0.000000000000     0.625000000000   
Zn     0.000000000000     0.000000000000     0.500000000000   
C      0.392950000000     0.000000000000     0.788200000000   
C      0.107050000000     0.000000000000     0.961800000000   
C      0.177300000000     0.468750000000     0.750000000000   
C      0.214850000000     0.468600000000     0.750000000000   
C      0.232100000000     0.439450000000     0.750000000000   
C      0.427750000000     0.000000000000     0.786550000000   
C      0.031250000000     0.177300000000     0.750000000000   
C      0.031400000000     0.214850000000     0.750000000000   
C      0.060550000000     0.232100000000     0.750000000000   
C      0.000000000000     0.392950000000     0.961800000000   
C      0.468750000000     0.322700000000     0.750000000000   
C      0.468600000000     0.285150000000     0.750000000000   
C      0.439450000000     0.267900000000     0.750000000000   
C      0.267900000000     0.060550000000     0.750000000000   
C      0.000000000000     0.392950000000     0.788200000000   
C      0.124550000000     0.000000000000     0.750000000000   
C      0.232150000000     0.000000000000     0.750000000000   
C      0.000000000000     0.107050000000     0.961800000000   
C      0.375450000000     0.000000000000     0.750000000000   
C      0.267850000000     0.000000000000     0.750000000000   
C      0.000000000000     0.072250000000     0.963450000000   
C      0.000000000000     0.124550000000     0.750000000000   
C      0.000000000000     0.232150000000     0.750000000000   
C      0.392950000000     0.000000000000     0.961800000000   
C      0.000000000000     0.375450000000     0.750000000000   
C      0.000000000000     0.267850000000     0.750000000000   
C      0.072250000000     0.000000000000     0.963450000000   
C      0.000000000000     0.427750000000     0.963450000000   
C      0.285150000000     0.031400000000     0.750000000000   
C      0.427750000000     0.000000000000     0.963450000000   
C      0.072250000000     0.000000000000     0.786550000000   
C      0.177300000000     0.031250000000     0.750000000000   
C      0.214850000000     0.031400000000     0.750000000000   
C      0.232100000000     0.060550000000     0.750000000000   
C      0.000000000000     0.107050000000     0.788200000000   
C      0.322700000000     0.031250000000     0.750000000000   
C      0.322700000000     0.468750000000     0.750000000000   
C      0.285150000000     0.468600000000     0.750000000000   
C      0.267900000000     0.439450000000     0.750000000000   
C      0.000000000000     0.427750000000     0.786550000000   
C      0.468750000000     0.177300000000     0.750000000000   
C      0.000000000000     0.072250000000     0.786550000000   
C      0.439450000000     0.232100000000     0.750000000000   
C      0.107050000000     0.000000000000     0.788200000000   
C      0.031250000000     0.322700000000     0.750000000000   
C      0.031400000000     0.285150000000     0.750000000000   
C      0.060550000000     0.267900000000     0.750000000000   
C      0.468600000000     0.214850000000     0.750000000000   
F      0.029910000000     0.029910000000     0.875000000000   
F      0.000000000000     0.000000000000     0.932125000000   
F      0.000000000000     0.000000000000     0.817875000000   
F      0.470090000000     0.470090000000     0.875000000000   
F      0.470090000000     0.029910000000     0.875000000000   
F      0.029910000000     0.470090000000     0.875000000000   
H      0.381550000000     0.000000000000     0.933850000000   
H      0.000000000000     0.439750000000     0.814075000000   
H      0.439750000000     0.000000000000     0.935925000000   
H      0.000000000000     0.439750000000     0.935925000000   
H      0.000000000000     0.118450000000     0.933850000000   
H      0.000000000000     0.118450000000     0.816150000000   
H      0.000000000000     0.060250000000     0.814075000000   
H      0.000000000000     0.381550000000     0.933850000000   
H      0.118450000000     0.000000000000     0.816150000000   
H      0.439750000000     0.000000000000     0.814075000000   
H      0.381550000000     0.000000000000     0.816150000000   
H      0.060250000000     0.000000000000     0.814075000000   
H      0.000000000000     0.060250000000     0.935925000000   
H      0.418550000000     0.279800000000     0.750000000000   
H      0.000000000000     0.381550000000     0.816150000000   
H      0.060250000000     0.000000000000     0.935925000000   
H      0.081450000000     0.279800000000     0.750000000000   
H      0.279800000000     0.081450000000     0.750000000000   
H      0.118450000000     0.000000000000     0.933850000000   
H      0.220200000000     0.418550000000     0.750000000000   
H      0.220200000000     0.081450000000     0.750000000000   
H      0.081450000000     0.220200000000     0.750000000000   
H      0.279800000000     0.418550000000     0.750000000000   
H      0.418550000000     0.220200000000     0.750000000000   
N      0.161300000000     0.000000000000     0.750000000000   
N      0.445200000000     0.000000000000     0.750000000000   
N      0.338700000000     0.000000000000     0.750000000000   
N      0.000000000000     0.054800000000     0.750000000000   
N      0.000000000000     0.161300000000     0.750000000000   
N      0.000000000000     0.445200000000     0.750000000000   
N      0.000000000000     0.338700000000     0.750000000000   
N      0.054800000000     0.000000000000     0.750000000000   
O      0.339150000000     0.442550000000     0.750000000000   
O      0.160850000000     0.057450000000     0.750000000000   
O      0.160850000000     0.442550000000     0.750000000000   
O      0.057450000000     0.339150000000     0.750000000000   
O      0.339150000000     0.057450000000     0.750000000000   
O      0.057450000000     0.160850000000     0.750000000000   
O      0.442550000000     0.339150000000     0.750000000000   
O      0.442550000000     0.160850000000     0.750000000000   
Si     0.000000000000     0.000000000000     0.875000000000   
Zn     0.000000000000     0.000000000000     0.750000000000   
C      0.392950000000     0.500000000000     0.038200000000   
C      0.107050000000     0.500000000000     0.211800000000   
C      0.177300000000     0.968750000000     0.000000000000   
C      0.214850000000     0.968600000000     0.000000000000   
C      0.232100000000     0.939450000000     0.000000000000   
C      0.427750000000     0.500000000000     0.036550000000   
C      0.031250000000     0.677300000000     0.000000000000   
C      0.031400000000     0.714850000000     0.000000000000   
C      0.060550000000     0.732100000000     0.000000000000   
C      0.000000000000     0.892950000000     0.211800000000   
C      0.468750000000     0.822700000000     0.000000000000   
C      0.468600000000     0.785150000000     0.000000000000   
C      0.439450000000     0.767900000000     0.000000000000   
C      0.267900000000     0.560550000000     0.000000000000   
C      0.000000000000     0.892950000000     0.038200000000   
C      0.124550000000     0.500000000000     0.000000000000   
C      0.232150000000     0.500000000000     0.000000000000   
C      0.000000000000     0.607050000000     0.211800000000   
C      0.375450000000     0.500000000000     0.000000000000   
C      0.267850000000     0.500000000000     0.000000000000   
C      0.000000000000     0.572250000000     0.213450000000   
C      0.000000000000     0.624550000000     0.000000000000   
C      0.000000000000     0.732150000000     0.000000000000   
C      0.392950000000     0.500000000000     0.211800000000   
C      0.000000000000     0.875450000000     0.000000000000   
C      0.000000000000     0.767850000000     0.000000000000   
C      0.072250000000     0.500000000000     0.213450000000   
C      0.000000000000     0.927750000000     0.213450000000   
C      0.285150000000     0.531400000000     0.000000000000   
C      0.427750000000     0.500000000000     0.213450000000   
C      0.072250000000     0.500000000000     0.036550000000   
C      0.177300000000     0.531250000000     0.000000000000   
C      0.214850000000     0.531400000000     0.000000000000   
C      0.232100000000     0.560550000000     0.000000000000   
C      0.000000000000     0.607050000000     0.038200000000   
C      0.322700000000     0.531250000000     0.000000000000   
C      0.322700000000     0.968750000000     0.000000000000   
C      0.285150000000     0.968600000000     0.000000000000   
C      0.267900000000     0.939450000000     0.000000000000   
C      0.000000000000     0.927750000000     0.036550000000   
C      0.468750000000     0.677300000000     0.000000000000   
C      0.000000000000     0.572250000000     0.036550000000   
C      0.439450000000     0.732100000000     0.000000000000   
C      0.107050000000     0.500000000000     0.038200000000   
C      0.031250000000     0.822700000000     0.000000000000   
C      0.031400000000     0.785150000000     0.000000000000   
C      0.060550000000     0.767900000000     0.000000000000   
C      0.468600000000     0.714850000000     0.000000000000   
F      0.029910000000     0.529910000000     0.125000000000   
F      0.000000000000     0.500000000000     0.182125000000   
F      0.000000000000     0.500000000000     0.067875000000   
F      0.470090000000     0.970090000000     0.125000000000   
F      0.470090000000     0.529910000000     0.125000000000   
F      0.029910000000     0.970090000000     0.125000000000   
H      0.381550000000     0.500000000000     0.183850000000   
H      0.000000000000     0.939750000000     0.064075000000   
H      0.439750000000     0.500000000000     0.185925000000   
H      0.000000000000     0.939750000000     0.185925000000   
H      0.000000000000     0.618450000000     0.183850000000   
H      0.000000000000     0.618450000000     0.066150000000   
H      0.000000000000     0.560250000000     0.064075000000   
H      0.000000000000     0.881550000000     0.183850000000   
H      0.118450000000     0.500000000000     0.066150000000   
H      0.439750000000     0.500000000000     0.064075000000   
H      0.381550000000     0.500000000000     0.066150000000   
H      0.060250000000     0.500000000000     0.064075000000   
H      0.000000000000     0.560250000000     0.185925000000   
H      0.418550000000     0.779800000000     0.000000000000   
H      0.000000000000     0.881550000000     0.066150000000   
H      0.060250000000     0.500000000000     0.185925000000   
H      0.081450000000     0.779800000000     0.000000000000   
H      0.279800000000     0.581450000000     0.000000000000   
H      0.118450000000     0.500000000000     0.183850000000   
H      0.220200000000     0.918550000000     0.000000000000   
H      0.220200000000     0.581450000000     0.000000000000   
H      0.081450000000     0.720200000000     0.000000000000   
H      0.279800000000     0.918550000000     0.000000000000   
H      0.418550000000     0.720200000000     0.000000000000   
N      0.161300000000     0.500000000000     0.000000000000   
N      0.445200000000     0.500000000000     0.000000000000   
N      0.338700000000     0.500000000000     0.000000000000   
N      0.000000000000     0.554800000000     0.000000000000   
N      0.000000000000     0.661300000000     0.000000000000   
N      0.000000000000     0.945200000000     0.000000000000   
N      0.000000000000     0.838700000000     0.000000000000   
N      0.054800000000     0.500000000000     0.000000000000   
O      0.339150000000     0.942550000000     0.000000000000   
O      0.160850000000     0.557450000000     0.000000000000   