%BLOCK LATTICE_CART
ang    # angstrom units
  9.124000000000     0.000000000000     0.000000000000   
  0.000000000000     9.124000000000     0.000000000000   
  0.000000000000     0.000000000000     11.335000000000  
%ENDBLOCK LATTICE_CART

%BLOCK POSITIONS_FRAC
C      0.068500000000     0.034750000000     0.038666666667   
C      0.132250000000     0.064500000000     0.306000000000   
C      0.181500000000     0.215250000000     0.205333333333   
C      0.117750000000     0.185500000000     0.139333333333   
C      0.090250000000     0.193500000000     0.122000000000   
C      0.060500000000     0.007250000000     0.056000000000   
C      0.159750000000     0.056500000000     0.288666666667   
C      0.189500000000     0.242750000000     0.222666666667   
C      0.056500000000     0.159750000000     0.044666666667   
C      0.242750000000     0.189500000000     0.110666666667   
C      0.193500000000     0.090250000000     0.211333333333   
C      0.007250000000     0.060500000000     0.277333333333   
C      0.034750000000     0.068500000000     0.294666666667   
C      0.064500000000     0.132250000000     0.027333333333   
C      0.215250000000     0.181500000000     0.128000000000   
C      0.185500000000     0.117750000000     0.194000000000   
Cd     0.079475000000     0.079475000000     0.000000000000   
Cd     0.170525000000     0.170525000000     0.166666666667   
Cd     0.045525000000     0.204475000000     0.083333333333   
Cd     0.204475000000     0.045525000000     0.250000000000   
C      0.068500000000     0.034750000000     0.372000000000   
C      0.132250000000     0.064500000000     0.639333333333   
C      0.181500000000     0.215250000000     0.538666666667   
C      0.117750000000     0.185500000000     0.472666666667   
C      0.090250000000     0.193500000000     0.455333333333   
C      0.060500000000     0.007250000000     0.389333333333   
C      0.159750000000     0.056500000000     0.622000000000   
C      0.189500000000     0.242750000000     0.556000000000   
C      0.056500000000     0.159750000000     0.378000000000   
C      0.242750000000     0.189500000000     0.444000000000   
C      0.193500000000     0.090250000000     0.544666666667   
C      0.007250000000     0.060500000000     0.610666666667   
C      0.034750000000     0.068500000000     0.628000000000   
C      0.064500000000     0.132250000000     0.360666666667   
C      0.215250000000     0.181500000000     0.461333333333   
C      0.185500000000     0.117750000000     0.527333333333   
Cd     0.079475000000     0.079475000000     0.333333333333   
Cd     0.170525000000     0.170525000000     0.500000000000   
Cd     0.045525000000     0.204475000000     0.416666666667   
Cd     0.204475000000     0.045525000000     0.583333333333   
C      0.068500000000     0.034750000000     0.705333333333   
C      0.132250000000     0.064500000000     0.972666666667   
C      0.181500000000     0.215250000000     0.872000000000   
C      0.117750000000     0.185500000000     0.806000000000   
C      0.090250000000     0.193500000000     0.788666666667   
C      0.060500000000     0.007250000000     0.722666666667   
C      0.159750000000     0.056500000000     0.955333333333   
C      0.189500000000     0.242750000000     0.889333333333   
C      0.056500000000     0.159750000000     0.711333333333   
C      0.242750000000     0.189500000000     0.777333333333   
C      0.193500000000     0.090250000000     0.878000000000   
C      0.007250000000     0.060500000000     0.944000000000   
C      0.034750000000     0.068500000000     0.961333333333   
C      0.064500000000     0.132250000000     0.694000000000   
C      0.215250000000     0.181500000000     0.794666666667   
C      0.185500000000     0.117750000000     0.860666666667   
Cd     0.079475000000     0.079475000000     0.666666666667   
Cd     0.170525000000     0.170525000000     0.833333333333   
Cd     0.045525000000     0.204475000000     0.750000000000   
Cd     0.204475000000     0.045525000000     0.916666666667   
C      0.068500000000     0.284750000000     0.038666666667   
C      0.132250000000     0.314500000000     0.306000000000   
C      0.181500000000     0.465250000000     0.205333333333   
C      0.117750000000     0.435500000000     0.139333333333   
C      0.090250000000     0.443500000000     0.122000000000   
C      0.060500000000     0.257250000000     0.056000000000   
C      0.159750000000     0.306500000000     0.288666666667   
C      0.189500000000     0.492750000000     0.222666666667   
C      0.056500000000     0.409750000000     0.044666666667   
C      0.242750000000     0.439500000000     0.110666666667   
C      0.193500000000     0.340250000000     0.211333333333   
C      0.007250000000     0.310500000000     0.277333333333   
C      0.034750000000     0.318500000000     0.294666666667   
C      0.064500000000     0.382250000000     0.027333333333   
C      0.215250000000     0.431500000000     0.128000000000   
C      0.185500000000     0.367750000000     0.194000000000   
Cd     0.079475000000     0.329475000000     0.000000000000   
Cd     0.170525000000     0.420525000000     0.166666666667   
Cd     0.045525000000     0.454475000000     0.083333333333   
Cd     0.204475000000     0.295525000000     0.250000000000   
C      0.068500000000     0.284750000000     0.372000000000   
C      0.132250000000     0.314500000000     0.639333333333   
C      0.181500000000     0.465250000000     0.538666666667   
C      0.117750000000     0.435500000000     0.472666666667   
C      0.090250000000     0.443500000000     0.455333333333   
C      0.060500000000     0.257250000000     0.389333333333   
C      0.159750000000     0.306500000000     0.622000000000   
C      0.189500000000     0.492750000000     0.556000000000   
C      0.056500000000     0.409750000000     0.378000000000   
C      0.242750000000     0.439500000000     0.444000000000   
C      0.193500000000     0.340250000000     0.544666666667   
C      0.007250000000     0.310500000000     0.610666666667   
C      0.034750000000     0.318500000000     0.628000000000   
C      0.064500000000     0.382250000000     0.360666666667   
C      0.215250000000     0.431500000000     0.461333333333   
C      0.185500000000     0.367750000000     0.527333333333   
Cd     0.079475000000     0.329475000000     0.333333333333   
Cd     0.170525000000     0.420525000000     0.500000000000   
Cd     0.045525000000     0.454475000000     0.416666666667   
Cd     0.204475000000     0.295525000000     0.583333333333   
C      0.068500000000     0.284750000000     0.705333333333   
C      0.132250000000     0.314500000000     0.972666666667   
C      0.181500000000     0.465250000000     0.872000000000   
C      0.117750000000     0.435500000000     0.806000000000   
C      0.090250000000     0.443500000000     0.788666666667   
C      0.060500000000     0.257250000000     0.722666666667   
C      0.159750000000     0.306500000000     0.955333333333   
C      0.189500000000     0.492750000000     0.889333333333   
C      0.056500000000     0.409750000000     0.711333333333   
C      0.242750000000     0.439500000000     0.777333333333   
C      0.193500000000     0.340250000000     0.878000000000   
C      0.007250000000     0.310500000000     0.944000000000   
C      0.034750000000     0.318500000000     0.961333333333   
C      0.064500000000     0.382250000000     0.694000000000   
C      0.215250000000     0.431500000000     0.794666666667   
C      0.185500000000     0.367750000000     0.860666666667   
Cd     0.079475000000     0.329475000000     0.666666666667   
Cd     0.170525000000     0.420525000000     0.833333333333   
Cd     0.045525000000     0.454475000000     0.750000000000   
Cd     0.204475000000     0.295525000000     0.916666666667   
C      0.068500000000     0.534750000000     0.038666666667   
C      0.132250000000     0.564500000000     0.306000000000   
C      0.181500000000     0.715250000000     0.205333333333   
C      0.117750000000     0.685500000000     0.139333333333   
C      0.090250000000     0.693500000000     0.122000000000   
C      0.060500000000     0.507250000000     0.056000000000   
C      0.159750000000     0.556500000000     0.288666666667   
C      0.189500000000     0.742750000000     0.222666666667   
C      0.056500000000     0.659750000000     0.044666666667   
C      0.242750000000     0.689500000000     0.110666666667   
C      0.193500000000     0.590250000000     0.211333333333   
C      0.007250000000     0.560500000000     0.277333333333   
C      0.034750000000     0.568500000000     0.294666666667   
C      0.064500000000     0.632250000000     0.027333333333   
C      0.215250000000     0.681500000000     0.128000000000   
C      0.185500000000     0.617750000000     0.194000000000   
Cd     0.079475000000     0.579475000000     0.000000000000   
Cd     0.170525000000     0.670525000000     0.166666666667   
Cd     0.045525000000     0.704475000000     0.083333333333   
Cd     0.204475000000     0.545525000000     0.250000000000   
C      0.068500000000     0.534750000000     0.372000000000   
C      0.132250000000     0.564500000000     0.639333333333   
C      0.181500000000     0.715250000000     0.538666666667   
C      0.117750000000     0.685500000000     0.472666666667   
C      0.090250000000     0.693500000000     0.455333333333   
C      0.060500000000     0.507250000000     0.389333333333   
C      0.159750000000     0.556500000000     0.622000000000   
C      0.189500000000     0.742750000000     0.556000000000   
C      0.056500000000     0.659750000000     0.378000000000   
C      0.242750000000     0.689500000000     0.444000000000   
C      0.193500000000     0.590250000000     0.544666666667   
C      0.007250000000     0.560500000000     0.610666666667   
C      0.034750000000     0.568500000000     0.628000000000   
C      0.064500000000     0.632250000000     0.360666666667   
C      0.215250000000     0.681500000000     0.461333333333   
C      0.185500000000     0.617750000000     0.527333333333   
Cd     0.079475000000     0.579475000000     0.333333333333   
Cd     0.170525000000     0.670525000000     0.500000000000   
Cd     0.045525000000     0.704475000000     0.416666666667   
Cd     0.204475000000     0.545525000000     0.583333333333   
C      0.068500000000     0.534750000000     0.705333333333   
C      0.132250000000     0.564500000000     0.972666666667   
C      0.181500000000     0.715250000000     0.872000000000   
C      0.117750000000     0.685500000000     0.806000000000   
C      0.090250000000     0.693500000000     0.788666666667   
C      0.060500000000     0.507250000000     0.722666666667   
C      0.159750000000     0.556500000000     0.955333333333   
C      0.189500000000     0.742750000000     0.889333333333   
C      0.056500000000     0.659750000000     0.711333333333   
C      0.242750000000     0.689500000000     0.777333333333   
C      0.193500000000     0.590250000000     0.878000000000   
C      0.007250000000     0.560500000000     0.944000000000   
C      0.034750000000     0.568500000000     0.961333333333   
C      0.064500000000     0.632250000000     0.694000000000   
C      0.215250000000     0.681500000000     0.794666666667   
C      0.185500000000     0.617750000000     0.860666666667   
Cd     0.079475000000     0.579475000000     0.666666666667   
Cd     0.170525000000     0.670525000000     0.833333333333   
Cd     0.045525000000     0.704475000000     0.750000000000   
Cd     0.204475000000     0.545525000000     0.916666666667   
C      0.068500000000     0.784750000000     0.038666666667   
C      0.132250000000     0.814500000000     0.306000000000   
C      0.181500000000     0.965250000000     0.205333333333   
C      0.117750000000     0.935500000000     0.139333333333   
C      0.090250000000     0.943500000000     0.122000000000   
C      0.060500000000     0.757250000000     0.056000000000   
C      0.159750000000     0.806500000000     0.288666666667   
C      0.189500000000     0.992750000000     0.222666666667   
C      0.056500000000     0.909750000000     0.044666666667   
C      0.242750000000     0.939500000000     0.110666666667   
C      0.193500000000     0.840250000000     0.211333333333   
C      0.007250000000     0.810500000000     0.277333333333   
C      0.034750000000     0.818500000000     0.294666666667   
C      0.064500000000     0.882250000000     0.027333333333   
C      0.215250000000     0.931500000000     0.128000000000   
C      0.185500000000     0.867750000000     0.194000000000   
Cd     0.079475000000     0.829475000000     0.000000000000   
Cd     0.170525000000     0.920525000000     0.166666666667   
Cd     0.045525000000     0.954475000000     0.083333333333   
Cd     0.204475000000     0.795525000000     0.250000000000   
C      0.068500000000     0.784750000000     0.372000000000   
C      0.132250000000     0.814500000000     0.639333333333   
C      0.181500000000     0.965250000000     0.538666666667   
C      0.117750000000     0.935500000000     0.472666666667   
C      0.090250000000     0.943500000000     0.455333333333   
C      0.060500000000     0.757250000000     0.389333333333   
C      0.159750000000     0.806500000000     0.622000000000   
C      0.189500000000     0.992750000000     0.556000000000   
C      0.056500000000     0.909750000000     0.378000000000   
C      0.242750000000     0.939500000000     0.444000000000   
C      0.193500000000     0.840250000000     0.544666666667   
C      0.007250000000     0.810500000000     0.610666666667   
C      0.034750000000     0.818500000000     0.628000000000   
C      0.064500000000     0.882250000000     0.360666666667   
C      0.215250000000     0.931500000000     0.461333333333   
C      0.185500000000     0.867750000000     0.527333333333   
Cd     0.079475000000     0.829475000000     0.333333333333   
Cd     0.170525000000     0.920525000000     0.500000000000   
Cd     0.045525000000     0.954475000000     0.416666666667   
Cd     0.204475000000     0.795525000000     0.583333333333   
C      0.068500000000     0.784750000000     0.705333333333   
C      0.132250000000     0.814500000000     0.972666666667   
C      0.181500000000     0.965250000000     0.872000000000   
C      0.117750000000     0.935500000000     0.806000000000   
C      0.090250000000     0.943500000000     0.788666666667   
C      0.060500000000     0.757250000000     0.722666666667   
C      0.159750000000     0.806500000000     0.955333333333   
C      0.189500000000     0.992750000000     0.889333333333   
C      0.056500000000     0.909750000000     0.711333333333   
C      0.242750000000     0.939500000000     0.777333333333   
C      0.193500000000     0.840250000000     0.878000000000   
C      0.007250000000     0.810500000000     0.944000000000   
C      0.034750000000     0.818500000000     0.961333333333   
C      0.064500000000     0.882250000000     0.694000000000   
C      0.215250000000     0.931500000000     0.794666666667   
C      0.185500000000     0.867750000000     0.860666666667   
Cd     0.079475000000     0.829475000000     0.666666666667   
Cd     0.170525000000     0.920525000000     0.833333333333   
Cd     0.045525000000     0.954475000000     0.750000000000   
Cd     0.204475000000     0.795525000000     0.916666666667   
C      0.318500000000     0.034750000000     0.038666666667   
C      0.382250000000     0.064500000000     0.306000000000   
C      0.431500000000     0.215250000000     0.205333333333   
C      0.367750000000     0.185500000000     0.139333333333   
C      0.340250000000     0.193500000000     0.122000000000   
C      0.310500000000     0.007250000000     0.056000000000   
C      0.409750000000     0.056500000000     0.288666666667   
C      0.439500000000     0.242750000000     0.222666666667   
C      0.306500000000     0.159750000000     0.044666666667   
C      0.492750000000     0.189500000000     0.110666666667   
C      0.443500000000     0.090250000000     0.211333333333   
C      0.257250000000     0.060500000000     0.277333333333   
C      0.284750000000     0.068500000000     0.294666666667   
C      0.314500000000     0.132250000000     0.027333333333   
C      0.465250000000     0.181500000000     0.128000000000   
C      0.435500000000     0.117750000000     0.194000000000   
Cd     0.329475000000     0.079475000000     0.000000000000   
Cd     0.420525000000     0.170525000000     0.166666666667   
Cd     0.295525000000     0.204475000000     0.083333333333   
Cd     0.454475000000     0.045525000000     0.250000000000   
C      0.318500000000     0.034750000000     0.372000000000   
C      0.382250000000     0.064500000000     0.639333333333   
C      0.431500000000     0.215250000000     0.538666666667   
C      0.367750000000     0.185500000000     0.472666666667   
C      0.340250000000     0.193500000000     0.455333333333   
C      0.310500000000     0.007250000000     0.389333333333   
C      0.409750000000     0.056500000000     0.622000000000   
C      0.439500000000     0.242750000000     0.556000000000   
C      0.306500000000     0.159750000000     0.378000000000   
C      0.492750000000     0.189500000000     0.444000000000   
C      0.443500000000     0.090250000000     0.544666666667   
C      0.257250000000     0.060500000000     0.610666666667   
C      0.284750000000     0.068500000000     0.628000000000   
C      0.314500000000     0.132250000000     0.360666666667   
C      0.465250000000     0.181500000000     0.461333333333   
C      0.435500000000     0.117750000000     0.527333333333   
Cd     0.329475000000     0.079475000000     0.333333333333   
Cd     0.420525000000     0.170525000000     0.500000000000   
Cd     0.295525000000     0.204475000000     0.416666666667   
Cd     0.454475000000     0.045525000000     0.583333333333   
C      0.318500000000     0.034750000000     0.705333333333   
C      0.382250000000     0.064500000000     0.972666666667   
C      0.431500000000     0.215250000000     0.872000000000   
C      0.367750000000     0.185500000000     0.806000000000   
C      0.340250000000     0.193500000000     0.788666666667   
C      0.310500000000     0.007250000000     0.722666666667   
C      0.409750000000     0.056500000000     0.955333333333   
C      0.439500000000     0.242750000000     0.889333333333   
C      0.306500000000     0.159750000000     0.711333333333   
C      0.492750000000     0.189500000000     0.777333333333   
C      0.443500000000     0.090250000000     0.878000000000   
C      0.257250000000     0.060500000000     0.944000000000   
C      0.284750000000     0.068500000000     0.961333333333   
C      0.314500000000     0.132250000000     0.694000000000   
C      0.465250000000     0.181500000000     0.794666666667   
C      0.435500000000     0.117750000000     0.860666666667   
Cd     0.329475000000     0.079475000000     0.666666666667   
Cd     0.420525000000     0.170525000000     0.833333333333   
Cd     0.295525000000     0.204475000000     0.750000000000   
Cd     0.454475000000     0.045525000000     0.916666666667   
C      0.318500000000     0.284750000000     0.038666666667   
C      0.382250000000     0.314500000000     0.306000000000   
C      0.431500000000     0.465250000000     0.205333333333   
C      0.367750000000     0.435500000000     0.139333333333   
C      0.340250000000     0.443500000000     0.122000000000   
C      0.310500000000     0.257250000000     0.056000000000   
C      0.409750000000     0.306500000000     0.288666666667   
C      0.439500000000     0.492750000000     0.222666666667   
C      0.306500000000     0.409750000000     0.044666666667   
C      0.492750000000     0.439500000000     0.110666666667   
C      0.443500000000     0.340250000000     0.211333333333   
C      0.257250000000     0.310500000000     0.277333333333   
C      0.284750000000     0.318500000000     0.294666666667   
C      0.314500000000     0.382250000000     0.027333333333   
C      0.465250000000     0.431500000000     0.128000000000   
C      0.435500000000     0.367750000000     0.194000000000   
Cd     0.329475000000     0.329475000000     0.000000000000   
Cd     0.420525000000     0.420525000000     0.166666666667   
Cd     0.295525000000     0.454475000000     0.083333333333   
Cd     0.454475000000     0.295525000000     0.250000000000   
C      0.318500000000     0.284750000000     0.372000000000   
C      0.382250000000     0.314500000000     0.639333333333   
C      0.431500000000     0.465250000000     0.538666666667   
C      0.367750000000     0.435500000000     0.472666666667   
C      0.340250000000     0.443500000000     0.455333333333   
C      0.310500000000     0.257250000000     0.389333333333   
C      0.409750000000     0.306500000000     0.622000000000   
C      0.439500000000     0.492750000000     0.556000000000   
C      0.306500000000     0.409750000000     0.378000000000   
C      0.492750000000     0.439500000000     0.444000000000   
C      0.443500000000     0.340250000000     0.544666666667   
C      0.257250000000     0.310500000000     0.610666666667   
C      0.284750000000     0.318500000000     0.628000000000   
C      0.314500000000     0.382250000000     0.360666666667   
C      0.465250000000     0.431500000000     0.461333333333   
C      0.435500000000     0.367750000000     0.527333333333   
Cd     0.329475000000     0.329475000000     0.333333333333   
Cd     0.420525000000     0.420525000000     0.500000000000   
Cd     0.295525000000     0.454475000000     0.416666666667   
Cd     0.454475000000     0.295525000000     0.583333333333   
C      0.318500000000     0.284750000000     0.705333333333   
C      0.382250000000     0.314500000000     0.972666666667   
C      0.431500000000     0.465250000000     0.872000000000   
C      0.367750000000     0.435500000000     0.806000000000   
C      0.340250000000     0.443500000000     0.788666666667   
C      0.310500000000     0.257250000000     0.722666666667   
C      0.409750000000     0.306500000000     0.955333333333   
C      0.439500000000     0.492750000000     0.889333333333   
C      0.306500000000     0.409750000000     0.711333333333   
C      0.492750000000     0.439500000000     0.777333333333   
C      0.443500000000     0.340250000000     0.878000000000   
C      0.257250000000     0.310500000000     0.944000000000   
C      0.284750000000     0.318500000000     0.961333333333   
C      0.314500000000     0.382250000000     0.694000000000   
C      0.465250000000     0.431500000000     0.794666666667   
C      0.435500000000     0.367750000000     0.860666666667   
Cd     0.329475000000     0.329475000000     0.666666666667   
Cd     0.420525000000     0.420525000000     0.833333333333   
Cd     0.295525000000     0.454475000000     0.750000000000   
Cd     0.454475000000     0.295525000000     0.916666666667   
C      0.318500000000     0.534750000000     0.038666666667   
C      0.382250000000     0.564500000000     0.306000000000   
C      0.431500000000     0.715250000000     0.205333333333   
C      0.367750000000     0.685500000000     0.139333333333   
C      0.340250000000     0.693500000000     0.122000000000   
C      0.310500000000     0.507250000000     0.056000000000   
C      0.409750000000     0.556500000000     0.288666666667   
C      0.439500000000     0.742750000000     0.222666666667   
C      0.306500000000     0.659750000000     0.044666666667   
C      0.492750000000     0.689500000000     0.110666666667   
C      0.443500000000     0.590250000000     0.211333333333   
C      0.257250000000     0.560500000000     0.277333333333   
C      0.284750000000     0.568500000000     0.294666666667   
C      0.314500000000     0.632250000000     0.027333333333   
C      0.465250000000     0.681500000000     0.128000000000   
C      0.435500000000     0.617750000000     0.194000000000   
Cd     0.329475000000     0.579475000000     0.000000000000   
Cd     0.420525000000     0.670525000000     0.166666666667   
Cd     0.295525000000     0.704475000000     0.083333333333   
Cd     0.454475000000     0.545525000000     0.250000000000   
C      0.318500000000     0.534750000000     0.372000000000   
C      0.382250000000     0.564500000000     0.639333333333   
C      0.431500000000     0.715250000000     0.538666666667   
C      0.367750000000     0.685500000000     0.472666666667   
C      0.340250000000     0.693500000000     0.455333333333   
C      0.310500000000     0.507250000000     0.389333333333   
C      0.409750000000     0.556500000000     0.622000000000   
C      0.439500000000     0.742750000000     0.556000000000   
C      0.306500000000     0.659750000000     0.378000000000   
C      0.492750000000     0.689500000000     0.444000000000   
C      0.443500000000     0.590250000000     0.544666666667   
C      0.257250000000     0.560500000000     0.610666666667   
C      0.284750000000     0.568500000000     0.628000000000   
C      0.314500000000     0.632250000000     0.360666666667   
C      0.465250000000     0.681500000000     0.461333333333   
C      0.435500000000     0.617750000000     0.527333333333   
Cd     0.329475000000     0.579475000000     0.333333333333   
Cd     0.420525000000     0.670525000000     0.500000000000   
Cd     0.295525000000     0.704475000000     0.416666666667   
Cd     0.454475000000     0.545525000000     0.583333333333   
C      0.318500000000     0.534750000000     0.705333333333   
C      0.382250000000     0.564500000000     0.972666666667   
C      0.431500000000     0.715250000000     0.872000000000   
C      0.367750000000     0.685500000000     0.806000000000   
C      0.340250000000     0.693500000000     0.788666666667   
C      0.310500000000     0.507250000000     0.722666666667   
C      0.409750000000     0.556500000000     0.955333333333   
C      0.439500000000     0.742750000000     0.889333333333   
C      0.306500000000     0.659750000000     0.711333333333   
C      0.492750000000     0.689500000000     0.777333333333   
C      0.443500000000     0.590250000000     0.878000000000   
C      0.257250000000     0.560500000000     0.944000000000   
C      0.284750000000     0.568500000000     0.961333333333   
C      0.314500000000     0.632250000000     0.694000000000   
C      0.465250000000     0.681500000000     0.794666666667   
C      0.435500000000     0.617750000000     0.860666666667   
Cd     0.329475000000     0.579475000000     0.666666666667   
Cd     0.420525000000     0.670525000000     0.833333333333   
Cd     0.295525000000     0.704475000000     0.750000000000   
Cd     0.454475000000     0.545525000000     0.916666666667   
C      0.318500000000     0.784750000000     0.038666666667   
C      0.382250000000     0.814500000000     0.306000000000   
C      0.431500000000     0.965250000000     0.205333333333   
C      0.367750000000     0.935500000000     0.139333333333   
C      0.340250000000     0.943500000000     0.122000000000   
C      0.310500000000     0.757250000000     0.056000000000   
C      0.409750000000     0.806500000000     0.288666666667   
C      0.439500000000     0.992750000000     0.222666666667   
C      0.306500000000     0.909750000000     0.044666666667   
C      0.492750000000     0.939500000000     0.110666666667   
C      0.443500000000     0.840250000000     0.211333333333   
C      0.257250000000     0.810500000000     0.277333333333   
C      0.284750000000     0.818500000000     0.294666666667   
C      0.314500000000     0.882250000000     0.027333333333   
C      0.465250000000     0.931500000000     0.128000000000   
C      0.435500000000     0.867750000000     0.194000000000   
Cd     0.329475000000     0.829475000000     0.000000000000   
Cd     0.420525000000     0.920525000000     0.166666666667   
Cd     0.295525000000     0.954475000000     0.083333333333   
Cd     0.454475000000     0.795525000000     0.250000000000   
C      0.318500000000     0.784750000000     0.372000000000   
C      0.382250000000     0.814500000000     0.639333333333   
C      0.431500000000     0.965250000000     0.538666666667   
C      0.367750000000     0.935500000000     0.472666666667   
C      0.340250000000     0.943500000000     0.455333333333   
C      0.310500000000     0.757250000000     0.389333333333   
C      0.409750000000     0.806500000000     0.622000000000   
C      0.439500000000     0.992750000000     0.556000000000   
C      0.306500000000     0.909750000000     0.378000000000   
C      0.492750000000     0.939500000000     0.444000000000   
C      0.443500000000     0.840250000000     0.544666666667   
C      0.257250000000     0.810500000000     0.610666666667   
C      0.284750000000     0.818500000000     0.628000000000   
C      0.314500000000     0.882250000000     0.360666666667   
C      0.465250000000     0.931500000000     0.461333333333   
C      0.435500000000     0.867750000000     0.527333333333   
Cd     0.329475000000     0.829475000000     0.333333333333   
Cd     0.420525000000     0.920525000000     0.500000000000   
Cd     0.295525000000     0.954475000000     0.416666666667   
Cd     0.454475000000     0.795525000000     0.583333333333   
C      0.318500000000     0.784750000000     0.705333333333   
C      0.382250000000     0.814500000000     0.972666666667   
C      0.431500000000     0.965250000000     0.872000000000   
C      0.367750000000     0.935500000000     0.806000000000   
C      0.340250000000     0.943500000000     0.788666666667   
C      0.310500000000     0.757250000000     0.722666666667   
C      0.409750000000     0.806500000000     0.955333333333   
C      0.439500000000     0.992750000000     0.889333333333   
C      0.306500000000     0.909750000000     0.711333333333   
C      0.492750000000     0.939500000000     0.777333333333   
C      0.443500000000     0.840250000000     0.878000000000   
C      0.257250000000     0.810500000000     0.944000000000   