%BLOCK LATTICE_CART
ang    # angstrom units
  10.488300000000    0.000000000000     0.000000000000   
 -1.904584855858     11.058588268257    0.000000000000   
 -4.431150466627    -3.226951225859     11.501511740986  
%ENDBLOCK LATTICE_CART

%BLOCK POSITIONS_FRAC
Gd     0.131143333333     0.150390000000     0.108080000000   
O      0.206800000000     0.145533333333     0.108366666667   
O      0.143100000000     0.092866666667     0.134533333333   
O      0.217800000000     0.167533333333     0.169433333333   
O      0.166833333333     0.109566666667     0.198833333333   
O      0.105533333333     0.088100000000     0.052666666667   
O      0.054966666667     0.098000000000     0.078266666667   
C      0.233400000000     0.157866666667     0.143666666667   
C      0.032466666667     0.036633333333     0.026766666667   
C      0.156666666667     0.084533333333     0.166466666667   
C      0.161100000000     0.040266666667     0.165833333333   
C      0.314966666667     0.181233333333     0.193000000000   
H      0.302500000000     0.191400000000     0.211266666667   
C      0.162000000000     0.013300000000     0.133200000000   
C      0.285100000000     0.162000000000     0.155300000000   
C      0.166166666667     0.026366666667     0.198733333333   
H      0.166066666667     0.044700000000     0.220933333333   
C      0.302900000000     0.147000000000     0.128033333333   
C      0.045466666667     0.009800000000     0.001666666667   
C      0.066266666667     0.076066666667     0.054466666667   
C      0.319333333333     0.026600000000     0.024233333333   
H      0.309633333333     0.044900000000     0.040366666667   
N      0.160266666667     0.026900000000     0.099000000000   
H      0.162500000000     0.009933333333     0.079500000000   
H      0.157000000000     0.052100000000     0.097766666667   
N      0.276866666667     0.127466666667     0.091533333333   
H      0.246166666667     0.123133333333     0.082866666667   
H      0.290100000000     0.118733333333     0.075700000000   
N      0.099333333333     0.006333333333     0.007000000000   
H      0.103733333333     0.317133333333     0.327700000000   
H      0.123800000000     0.027233333333     0.022833333333   
Gd     0.202190000000     0.182943333333     0.225253333333   
O      0.126533333333     0.187800000000     0.224966666667   
O      0.190233333333     0.240466666667     0.198800000000   
O      0.115533333333     0.165800000000     0.163900000000   
O      0.166500000000     0.223766666667     0.134500000000   
O      0.227800000000     0.245233333333     0.280666666667   
O      0.278366666667     0.235333333333     0.255066666667   
C      0.099933333333     0.175466666667     0.189666666667   
C      0.300866666667     0.296700000000     0.306566666667   
C      0.176666666667     0.248800000000     0.166866666667   
C      0.172233333333     0.293066666667     0.167500000000   
C      0.018366666667     0.152100000000     0.140333333333   
H      0.030833333333     0.141933333333     0.122066666667   
C      0.171333333333     0.320033333333     0.200133333333   
C      0.048233333333     0.171333333333     0.178033333333   
C      0.167166666667     0.306966666667     0.134600000000   
H      0.167266666667     0.288633333333     0.112400000000   
C      0.030433333333     0.186333333333     0.205300000000   
C      0.287866666667     0.323533333333     0.331666666667   
C      0.267066666667     0.257266666667     0.278866666667   
C      0.014000000000     0.306733333333     0.309100000000   
H      0.023700000000     0.288433333333     0.292966666667   
N      0.173066666667     0.306433333333     0.234333333333   
H      0.170833333333     0.323400000000     0.253833333333   
H      0.176333333333     0.281233333333     0.235566666667   
N      0.056466666667     0.205866666667     0.241800000000   
H      0.087166666667     0.210200000000     0.250466666667   
H      0.043233333333     0.214600000000     0.257633333333   
N      0.234000000000     0.327000000000     0.326333333333   
H      0.229600000000     0.016200000000     0.005633333333   
H      0.209533333333     0.306100000000     0.310500000000   
Gd     0.131143333333     0.150390000000     0.441413333333   
O      0.206800000000     0.145533333333     0.441700000000   
O      0.143100000000     0.092866666667     0.467866666667   
O      0.217800000000     0.167533333333     0.502766666667   
O      0.166833333333     0.109566666667     0.532166666667   
O      0.105533333333     0.088100000000     0.386000000000   
O      0.054966666667     0.098000000000     0.411600000000   
C      0.233400000000     0.157866666667     0.477000000000   
C      0.032466666667     0.036633333333     0.360100000000   
C      0.156666666667     0.084533333333     0.499800000000   
C      0.161100000000     0.040266666667     0.499166666667   
C      0.314966666667     0.181233333333     0.526333333333   
H      0.302500000000     0.191400000000     0.544600000000   
C      0.162000000000     0.013300000000     0.466533333333   
C      0.285100000000     0.162000000000     0.488633333333   
C      0.166166666667     0.026366666667     0.532066666667   
H      0.166066666667     0.044700000000     0.554266666667   
C      0.302900000000     0.147000000000     0.461366666667   
C      0.045466666667     0.009800000000     0.335000000000   
C      0.066266666667     0.076066666667     0.387800000000   
C      0.319333333333     0.026600000000     0.357566666667   
H      0.309633333333     0.044900000000     0.373700000000   
N      0.160266666667     0.026900000000     0.432333333333   
H      0.162500000000     0.009933333333     0.412833333333   
H      0.157000000000     0.052100000000     0.431100000000   
N      0.276866666667     0.127466666667     0.424866666667   
H      0.246166666667     0.123133333333     0.416200000000   
H      0.290100000000     0.118733333333     0.409033333333   
N      0.099333333333     0.006333333333     0.340333333333   
H      0.103733333333     0.317133333333     0.661033333333   
H      0.123800000000     0.027233333333     0.356166666667   
Gd     0.202190000000     0.182943333333     0.558586666667   
O      0.126533333333     0.187800000000     0.558300000000   
O      0.190233333333     0.240466666667     0.532133333333   
O      0.115533333333     0.165800000000     0.497233333333   
O      0.166500000000     0.223766666667     0.467833333333   
O      0.227800000000     0.245233333333     0.614000000000   
O      0.278366666667     0.235333333333     0.588400000000   
C      0.099933333333     0.175466666667     0.523000000000   
C      0.300866666667     0.296700000000     0.639900000000   
C      0.176666666667     0.248800000000     0.500200000000   
C      0.172233333333     0.293066666667     0.500833333333   
C      0.018366666667     0.152100000000     0.473666666667   
H      0.030833333333     0.141933333333     0.455400000000   
C      0.171333333333     0.320033333333     0.533466666667   
C      0.048233333333     0.171333333333     0.511366666667   
C      0.167166666667     0.306966666667     0.467933333333   
H      0.167266666667     0.288633333333     0.445733333333   
C      0.030433333333     0.186333333333     0.538633333333   
C      0.287866666667     0.323533333333     0.665000000000   
C      0.267066666667     0.257266666667     0.612200000000   
C      0.014000000000     0.306733333333     0.642433333333   
H      0.023700000000     0.288433333333     0.626300000000   
N      0.173066666667     0.306433333333     0.567666666667   
H      0.170833333333     0.323400000000     0.587166666667   
H      0.176333333333     0.281233333333     0.568900000000   
N      0.056466666667     0.205866666667     0.575133333333   
H      0.087166666667     0.210200000000     0.583800000000   
H      0.043233333333     0.214600000000     0.590966666667   
N      0.234000000000     0.327000000000     0.659666666667   
H      0.229600000000     0.016200000000     0.338966666667   
H      0.209533333333     0.306100000000     0.643833333333   
Gd     0.131143333333     0.150390000000     0.774746666667   
O      0.206800000000     0.145533333333     0.775033333333   
O      0.143100000000     0.092866666667     0.801200000000   
O      0.217800000000     0.167533333333     0.836100000000   
O      0.166833333333     0.109566666667     0.865500000000   
O      0.105533333333     0.088100000000     0.719333333333   
O      0.054966666667     0.098000000000     0.744933333333   
C      0.233400000000     0.157866666667     0.810333333333   
C      0.032466666667     0.036633333333     0.693433333333   
C      0.156666666667     0.084533333333     0.833133333333   
C      0.161100000000     0.040266666667     0.832500000000   
C      0.314966666667     0.181233333333     0.859666666667   
H      0.302500000000     0.191400000000     0.877933333333   
C      0.162000000000     0.013300000000     0.799866666667   
C      0.285100000000     0.162000000000     0.821966666667   
C      0.166166666667     0.026366666667     0.865400000000   
H      0.166066666667     0.044700000000     0.887600000000   
C      0.302900000000     0.147000000000     0.794700000000   
C      0.045466666667     0.009800000000     0.668333333333   
C      0.066266666667     0.076066666667     0.721133333333   
C      0.319333333333     0.026600000000     0.690900000000   
H      0.309633333333     0.044900000000     0.707033333333   
N      0.160266666667     0.026900000000     0.765666666667   
H      0.162500000000     0.009933333333     0.746166666667   
H      0.157000000000     0.052100000000     0.764433333333   
N      0.276866666667     0.127466666667     0.758200000000   
H      0.246166666667     0.123133333333     0.749533333333   
H      0.290100000000     0.118733333333     0.742366666667   
N      0.099333333333     0.006333333333     0.673666666667   
H      0.103733333333     0.317133333333     0.994366666667   
H      0.123800000000     0.027233333333     0.689500000000   
Gd     0.202190000000     0.182943333333     0.891920000000   
O      0.126533333333     0.187800000000     0.891633333333   
O      0.190233333333     0.240466666667     0.865466666667   
O      0.115533333333     0.165800000000     0.830566666667   
O      0.166500000000     0.223766666667     0.801166666667   
O      0.227800000000     0.245233333333     0.947333333333   
O      0.278366666667     0.235333333333     0.921733333333   
C      0.099933333333     0.175466666667     0.856333333333   
C      0.300866666667     0.296700000000     0.973233333333   
C      0.176666666667     0.248800000000     0.833533333333   
C      0.172233333333     0.293066666667     0.834166666667   
C      0.018366666667     0.152100000000     0.807000000000   
H      0.030833333333     0.141933333333     0.788733333333   
C      0.171333333333     0.320033333333     0.866800000000   
C      0.048233333333     0.171333333333     0.844700000000   
C      0.167166666667     0.306966666667     0.801266666667   
H      0.167266666667     0.288633333333     0.779066666667   
C      0.030433333333     0.186333333333     0.871966666667   
C      0.287866666667     0.323533333333     0.998333333333   
C      0.267066666667     0.257266666667     0.945533333333   
C      0.014000000000     0.306733333333     0.975766666667   
H      0.023700000000     0.288433333333     0.959633333333   
N      0.173066666667     0.306433333333     0.901000000000   
H      0.170833333333     0.323400000000     0.920500000000   
H      0.176333333333     0.281233333333     0.902233333333   
N      0.056466666667     0.205866666667     0.908466666667   
H      0.087166666667     0.210200000000     0.917133333333   
H      0.043233333333     0.214600000000     0.924300000000   
N      0.234000000000     0.327000000000     0.993000000000   
H      0.229600000000     0.016200000000     0.672300000000   
H      0.209533333333     0.306100000000     0.977166666667   
Gd     0.131143333333     0.483723333333     0.108080000000   
O      0.206800000000     0.478866666667     0.108366666667   
O      0.143100000000     0.426200000000     0.134533333333   
O      0.217800000000     0.500866666667     0.169433333333   
O      0.166833333333     0.442900000000     0.198833333333   
O      0.105533333333     0.421433333333     0.052666666667   
O      0.054966666667     0.431333333333     0.078266666667   
C      0.233400000000     0.491200000000     0.143666666667   
C      0.032466666667     0.369966666667     0.026766666667   
C      0.156666666667     0.417866666667     0.166466666667   
C      0.161100000000     0.373600000000     0.165833333333   
C      0.314966666667     0.514566666667     0.193000000000   
H      0.302500000000     0.524733333333     0.211266666667   
C      0.162000000000     0.346633333333     0.133200000000   
C      0.285100000000     0.495333333333     0.155300000000   
C      0.166166666667     0.359700000000     0.198733333333   
H      0.166066666667     0.378033333333     0.220933333333   
C      0.302900000000     0.480333333333     0.128033333333   
C      0.045466666667     0.343133333333     0.001666666667   
C      0.066266666667     0.409400000000     0.054466666667   
C      0.319333333333     0.359933333333     0.024233333333   
H      0.309633333333     0.378233333333     0.040366666667   
N      0.160266666667     0.360233333333     0.099000000000   
H      0.162500000000     0.343266666667     0.079500000000   
H      0.157000000000     0.385433333333     0.097766666667   
N      0.276866666667     0.460800000000     0.091533333333   
H      0.246166666667     0.456466666667     0.082866666667   
H      0.290100000000     0.452066666667     0.075700000000   
N      0.099333333333     0.339666666667     0.007000000000   
H      0.103733333333     0.650466666667     0.327700000000   
H      0.123800000000     0.360566666667     0.022833333333   
Gd     0.202190000000     0.516276666667     0.225253333333   
O      0.126533333333     0.521133333333     0.224966666667   
O      0.190233333333     0.573800000000     0.198800000000   
O      0.115533333333     0.499133333333     0.163900000000   
O      0.166500000000     0.557100000000     0.134500000000   
O      0.227800000000     0.578566666667     0.280666666667   
O      0.278366666667     0.568666666667     0.255066666667   
C      0.099933333333     0.508800000000     0.189666666667   
C      0.300866666667     0.630033333333     0.306566666667   
C      0.176666666667     0.582133333333     0.166866666667   
C      0.172233333333     0.626400000000     0.167500000000   
C      0.018366666667     0.485433333333     0.140333333333   
H      0.030833333333     0.475266666667     0.122066666667   
C      0.171333333333     0.653366666667     0.200133333333   
C      0.048233333333     0.504666666667     0.178033333333   
C      0.167166666667     0.640300000000     0.134600000000   
H      0.167266666667     0.621966666667     0.112400000000   
C      0.030433333333     0.519666666667     0.205300000000   
C      0.287866666667     0.656866666667     0.331666666667   
C      0.267066666667     0.590600000000     0.278866666667   
C      0.014000000000     0.640066666667     0.309100000000   
H      0.023700000000     0.621766666667     0.292966666667   
N      0.173066666667     0.639766666667     0.234333333333   
H      0.170833333333     0.656733333333     0.253833333333   
H      0.176333333333     0.614566666667     0.235566666667   
N      0.056466666667     0.539200000000     0.241800000000   
H      0.087166666667     0.543533333333     0.250466666667   
H      0.043233333333     0.547933333333     0.257633333333   
N      0.234000000000     0.660333333333     0.326333333333   
H      0.229600000000     0.349533333333     0.005633333333   
H      0.209533333333     0.639433333333     0.310500000000   
Gd     0.131143333333     0.483723333333     0.441413333333   
O      0.206800000000     0.478866666667     0.441700000000   
O      0.143100000000     0.426200000000     0.467866666667   
O      0.217800000000     0.500866666667     0.502766666667   
O      0.166833333333     0.442900000000     0.532166666667   
O      0.105533333333     0.421433333333     0.386000000000   
O      0.054966666667     0.431333333333     0.411600000000   
C      0.233400000000     0.491200000000     0.477000000000   
C      0.032466666667     0.369966666667     0.360100000000   
C      0.156666666667     0.417866666667     0.499800000000   
C      0.161100000000     0.373600000000     0.499166666667   
C      0.314966666667     0.514566666667     0.526333333333   
H      0.302500000000     0.524733333333     0.544600000000   
C      0.162000000000     0.346633333333     0.466533333333   
C      0.285100000000     0.495333333333     0.488633333333   
C      0.166166666667     0.359700000000     0.532066666667   
H      0.166066666667     0.378033333333     0.554266666667   
C      0.302900000000     0.480333333333     0.461366666667   
C      0.045466666667     0.343133333333     0.335000000000   
C      0.066266666667     0.409400000000     0.387800000000   
C      0.319333333333     0.359933333333     0.357566666667   
H      0.309633333333     0.378233333333     0.373700000000   
N      0.160266666667     0.360233333333     0.432333333333   
H      0.162500000000     0.343266666667     0.412833333333   
H      0.157000000000     0.385433333333     0.431100000000   
N      0.276866666667     0.460800000000     0.424866666667   
H      0.246166666667     0.456466666667     0.416200000000   
H      0.290100000000     0.452066666667     0.409033333333   
N      0.099333333333     0.339666666667     0.340333333333   
H      0.103733333333     0.650466666667     0.661033333333   
H      0.123800000000     0.360566666667     0.356166666667   
Gd     0.202190000000     0.516276666667     0.558586666667   
O      0.126533333333     0.521133333333     0.558300000000   
O      0.190233333333     0.573800000000     0.532133333333   
O      0.115533333333     0.499133333333     0.497233333333   
O      0.166500000000     0.557100000000     0.467833333333   
O      0.227800000000     0.578566666667     0.614000000000   
O      0.278366666667     0.568666666667     0.588400000000   
C      0.099933333333     0.508800000000     0.523000000000   
C      0.300866666667     0.630033333333     0.639900000000   
C      0.176666666667     0.582133333333     0.500200000000   
C      0.172233333333     0.626400000000     0.500833333333   
C      0.018366666667     0.485433333333     0.473666666667   
H      0.030833333333     0.475266666667     0.455400000000   
C      0.171333333333     0.653366666667     0.533466666667   
C      0.048233333333     0.504666666667     0.511366666667   
C      0.167166666667     0.640300000000     0.467933333333   
H      0.167266666667     0.621966666667     0.445733333333   
C      0.030433333333     0.519666666667     0.538633333333   
C      0.287866666667     0.656866666667     0.665000000000   
C      0.267066666667     0.590600000000     0.612200000000   
C      0.014000000000     0.640066666667     0.642433333333   
H      0.023700000000     0.621766666667     0.626300000000   
N      0.173066666667     0.639766666667     0.567666666667   
H      0.170833333333     0.656733333333     0.587166666667   
H      0.176333333333     0.614566666667     0.568900000000   
N      0.056466666667     0.539200000000     0.575133333333   
H      0.087166666667     0.543533333333     0.583800000000   
H      0.043233333333     0.547933333333     0.590966666667   
N      0.234000000000     0.660333333333     0.659666666667   
H      0.229600000000     0.349533333333     0.338966666667   
H      0.209533333333     0.639433333333     0.643833333333   
Gd     0.131143333333     0.483723333333     0.774746666667   
O      0.206800000000     0.478866666667     0.775033333333   
O      0.143100000000     0.426200000000     0.801200000000   
O      0.217800000000     0.500866666667     0.836100000000   
O      0.166833333333     0.442900000000     0.865500000000   
O      0.105533333333     0.421433333333     0.719333333333   
O      0.054966666667     0.431333333333     0.744933333333   
C      0.233400000000     0.491200000000     0.810333333333   
C      0.032466666667     0.369966666667     0.693433333333   
C      0.156666666667     0.417866666667     0.833133333333   
C      0.161100000000     0.373600000000     0.832500000000   
C      0.314966666667     0.514566666667     0.859666666667   
H      0.302500000000     0.524733333333     0.877933333333   
C      0.162000000000     0.346633333333     0.799866666667   
C      0.285100000000     0.495333333333     0.821966666667   
C      0.166166666667     0.359700000000     0.865400000000   
H      0.166066666667     0.378033333333     0.887600000000   
C      0.302900000000     0.480333333333     0.794700000000   
C      0.045466666667     0.343133333333     0.668333333333   
C      0.066266666667     0.409400000000     0.721133333333   
C      0.319333333333     0.359933333333     0.690900000000   
H      0.309633333333     0.378233333333     0.707033333333   
N      0.160266666667     0.360233333333     0.765666666667   
H      0.162500000000     0.343266666667     0.746166666667   
H      0.157000000000     0.385433333333     0.764433333333   
N      0.276866666667     0.460800000000     0.758200000000   
H      0.246166666667     0.456466666667     0.749533333333   
H      0.290100000000     0.452066666667     0.742366666667   
N      0.099333333333     0.339666666667     0.673666666667   
H      0.103733333333     0.650466666667     0.994366666667   
H      0.123800000000     0.360566666667     0.689500000000   
Gd     0.202190000000     0.516276666667     0.891920000000   
O      0.126533333333     0.521133333333     0.891633333333   
O      0.190233333333     0.573800000000     0.865466666667   
O      0.115533333333     0.499133333333     0.830566666667   
O      0.166500000000     0.557100000000     0.801166666667   
O      0.227800000000     0.578566666667     0.947333333333   
O      0.278366666667     0.568666666667     0.921733333333   
C      0.099933333333     0.508800000000     0.856333333333   
C      0.300866666667     0.630033333333     0.973233333333   
C      0.176666666667     0.582133333333     0.833533333333   
C      0.172233333333     0.626400000000     0.834166666667   
C      0.018366666667     0.485433333333     0.807000000000   
H      0.030833333333     0.475266666667     0.788733333333   
C      0.171333333333     0.653366666667     0.866800000000   
C      0.048233333333     0.504666666667     0.844700000000   
C      0.167166666667     0.640300000000     0.801266666667   
H      0.167266666667     0.621966666667     0.779066666667   
C      0.030433333333     0.519666666667     0.871966666667   
C      0.287866666667     0.656866666667     0.998333333333   
C      0.267066666667     0.590600000000     0.945533333333   
C      0.014000000000     0.640066666667     0.975766666667   
H      0.023700000000     0.621766666667     0.959633333333   
N      0.173066666667     0.639766666667     0.901000000000   
H      0.170833333333     0.656733333333     0.920500000000   
H      0.176333333333     0.614566666667     0.902233333333   
N      0.056466666667     0.539200000000     0.908466666667   
H      0.087166666667     0.543533333333     0.917133333333   
H      0.043233333333     0.547933333333     0.924300000000   
N      0.234000000000     0.660333333333     0.993000000000   
H      0.229600000000     0.349533333333     0.672300000000   
H      0.209533333333     0.639433333333     0.977166666667   
Gd     0.131143333333     0.817056666667     0.108080000000   
O      0.206800000000     0.812200000000     0.108366666667   
O      0.143100000000     0.759533333333     0.134533333333   
O      0.217800000000     0.834200000000     0.169433333333   
O      0.166833333333     0.776233333333     0.198833333333   
O      0.105533333333     0.754766666667     0.052666666667   
O      0.054966666667     0.764666666667     0.078266666667   
C      0.233400000000     0.824533333333     0.143666666667   
C      0.032466666667     0.703300000000     0.026766666667   
C      0.156666666667     0.751200000000     0.166466666667   
C      0.161100000000     0.706933333333     0.165833333333   
C      0.314966666667     0.847900000000     0.193000000000   
H      0.302500000000     0.858066666667     0.211266666667   
C      0.162000000000     0.679966666667     0.133200000000   
C      0.285100000000     0.828666666667     0.155300000000   
C      0.166166666667     0.693033333333     0.198733333333   
H      0.166066666667     0.711366666667     0.220933333333   
C      0.302900000000     0.813666666667     0.128033333333   
C      0.045466666667     0.676466666667     0.001666666667   
C      0.066266666667     0.742733333333     0.054466666667   
C      0.319333333333     0.693266666667     0.024233333333   
H      0.309633333333     0.711566666667     0.040366666667   
N      0.160266666667     0.693566666667     0.099000000000   
H      0.162500000000     0.676600000000     0.079500000000   
H      0.157000000000     0.718766666667     0.097766666667   
N      0.276866666667     0.794133333333     0.091533333333   
H      0.246166666667     0.789800000000     0.082866666667   
H      0.290100000000     0.785400000000     0.075700000000   
N      0.099333333333     0.673000000000     0.007000000000   
H      0.103733333333     0.983800000000     0.327700000000   
H      0.123800000000     0.693900000000     0.022833333333   
Gd     0.202190000000     0.849610000000     0.225253333333   
O      0.126533333333     0.854466666667     0.224966666667   
O      0.190233333333     0.907133333333     0.198800000000   
O      0.115533333333     0.832466666667     0.163900000000   
O      0.166500000000     0.890433333333     0.134500000000   
O      0.227800000000     0.911900000000     0.280666666667   
O      0.278366666667     0.902000000000     0.255066666667   
C      0.099933333333     0.842133333333     0.189666666667   
C      0.300866666667     0.963366666667     0.306566666667   
C      0.176666666667     0.915466666667     0.166866666667   
C      0.172233333333     0.959733333333     0.167500000000   
C      0.018366666667     0.818766666667     0.140333333333   
H      0.030833333333     0.808600000000     0.122066666667   
C      0.171333333333     0.986700000000     0.200133333333   
C      0.048233333333     0.838000000000     0.178033333333   
C      0.167166666667     0.973633333333     0.134600000000   
H      0.167266666667     0.955300000000     0.112400000000   
C      0.030433333333     0.853000000000     0.205300000000   
C      0.287866666667     0.990200000000     0.331666666667   
C      0.267066666667     0.923933333333     0.278866666667   
C      0.014000000000     0.973400000000     0.309100000000   
H      0.023700000000     0.955100000000     0.292966666667   
N      0.173066666667     0.973100000000     0.234333333333   
H      0.170833333333     0.990066666667     0.253833333333   
H      0.176333333333     0.947900000000     0.235566666667   
N      0.056466666667     0.872533333333     0.241800000000   
H      0.087166666667     0.876866666667     0.250466666667   
H      0.043233333333     0.881266666667     0.257633333333   
N      0.234000000000     0.993666666667     0.326333333333   
H      0.229600000000     0.682866666667     0.005633333333   
H      0.209533333333     0.972766666667     0.310500000000   
Gd     0.131143333333     0.817056666667     0.441413333333   
O      0.206800000000     0.812200000000     0.441700000000   
O      0.143100000000     0.759533333333     0.467866666667   
O      0.217800000000     0.834200000000     0.502766666667   
O      0.166833333333     0.776233333333     0.532166666667   
O      0.105533333333     0.754766666667     0.386000000000   
O      0.054966666667     0.764666666667     0.411600000000   
C      0.233400000000     0.824533333333     0.477000000000   
C      0.032466666667     0.703300000000     0.360100000000   
C      0.156666666667     0.751200000000     0.499800000000   
C      0.161100000000     0.706933333333     0.499166666667   
C      0.314966666667     0.847900000000     0.526333333333   
H      0.302500000000     0.858066666667     0.544600000000   
C      0.162000000000     0.679966666667     0.466533333333   
C      0.285100000000     0.828666666667     0.488633333333   
C      0.166166666667     0.693033333333     0.532066666667   
H      0.166066666667     0.711366666667     0.554266666667   
C      0.302900000000     0.813666666667     0.461366666667   
C      0.045466666667     0.676466666667     0.335000000000   
C      0.066266666667     0.742733333333     0.387800000000   
C      0.319333333333     0.693266666667     0.357566666667   
H      0.309633333333     0.711566666667     0.373700000000   
N      0.160266666667     0.693566666667     0.432333333333   
H      0.162500000000     0.676600000000     0.412833333333   
H      0.157000000000     0.718766666667     0.431100000000   
N      0.276866666667     0.794133333333     0.424866666667   
H      0.246166666667     0.789800000000     0.416200000000   
H      0.290100000000     0.785400000000     0.409033333333   
N      0.099333333333     0.673000000000     0.340333333333   
H      0.103733333333     0.983800000000     0.661033333333   
H      0.123800000000     0.693900000000     0.356166666667   
Gd     0.202190000000     0.849610000000     0.558586666667   
O      0.126533333333     0.854466666667     0.558300000000   
O      0.190233333333     0.907133333333     0.532133333333   
O      0.115533333333     0.832466666667     0.497233333333   
O      0.166500000000     0.890433333333     0.467833333333   
O      0.227800000000     0.911900000000     0.614000000000   
O      0.278366666667     0.902000000000     0.588400000000   