%BLOCK LATTICE_CART
ang    # angstrom units
  9.705500000000     0.000000000000     0.000000000000   
  0.000000000000     17.849800000000    0.000000000000   
 -1.223892215587     0.000000000000     14.733754718151  
%ENDBLOCK LATTICE_CART

%BLOCK POSITIONS_FRAC
Cd     0.289443333333     0.290795000000     0.259630000000   
O      0.253966666667     0.271070000000     0.192190000000   
O      0.227933333333     0.333200000000     0.265300000000   
O      0.279900000000     0.331165000000     0.323270000000   
O      0.311466666667     0.231940000000     0.201550000000   
N      0.330966666667     0.082485000000     0.025450000000   
N      0.082133333333     0.495010000000     0.452550000000   
C      0.274833333333     0.242340000000     0.181600000000   
C      0.252700000000     0.218650000000     0.143950000000   
C      0.276533333333     0.190000000000     0.124550000000   
H      0.306766666667     0.184950000000     0.135450000000   
C      0.255833333333     0.168600000000     0.088800000000   
C      0.210133333333     0.175700000000     0.074050000000   
H      0.195800000000     0.161650000000     0.050450000000   
C      0.185900000000     0.203400000000     0.094100000000   
H      0.155033333333     0.207300000000     0.084550000000   
C      0.207033333333     0.225550000000     0.128300000000   
H      0.190833333333     0.244950000000     0.140750000000   
C      0.002933333333     0.088800000000     0.069900000000   
H      0.023500000000     0.073750000000     0.087450000000   
C      0.313100000000     0.116300000000     0.091500000000   
H      0.318566666667     0.119650000000     0.122700000000   
C      0.281900000000     0.138700000000     0.067000000000   
C      0.275733333333     0.131800000000     0.021200000000   
H      0.254733333333     0.146100000000     0.003100000000   
C      0.300300000000     0.104000000000     0.001750000000   
H      0.295266666667     0.100100000000     0.470650000000   
C      0.242133333333     0.342150000000     0.304850000000   
C      0.212566666667     0.367300000000     0.331050000000   
C      0.170633333333     0.380450000000     0.312350000000   
H      0.159500000000     0.372600000000     0.283500000000   
C      0.145100000000     0.405050000000     0.335900000000   
H      0.117600000000     0.414350000000     0.322000000000   
C      0.159033333333     0.416250000000     0.379400000000   
C      0.200233333333     0.401450000000     0.398650000000   
H      0.210633333333     0.408200000000     0.428150000000   
C      0.226033333333     0.377050000000     0.375050000000   
H      0.253033333333     0.367050000000     0.389150000000   
C      0.073800000000     0.490250000000     0.407750000000   
H      0.050933333333     0.004750000000     0.392500000000   
C      0.097100000000     0.465150000000     0.383100000000   
H      0.089833333333     0.462950000000     0.352000000000   
C      0.131800000000     0.442950000000     0.404650000000   
C      0.140200000000     0.448200000000     0.450850000000   
H      0.162800000000     0.434150000000     0.467100000000   
C      0.115533333333     0.473950000000     0.472800000000   
H      0.122466666667     0.477000000000     0.003850000000   
Cd     0.043890000000     0.040795000000     0.490370000000   
O      0.079366666667     0.021070000000     0.057810000000   
O      0.105400000000     0.083200000000     0.484700000000   
O      0.053433333333     0.081165000000     0.426730000000   
O      0.021866666667     0.481940000000     0.048450000000   
N      0.002366666667     0.332485000000     0.224550000000   
N      0.251200000000     0.245010000000     0.297450000000   
C      0.058500000000     0.492340000000     0.068400000000   
C      0.080633333333     0.468650000000     0.106050000000   
C      0.056800000000     0.440000000000     0.125450000000   
H      0.026566666667     0.434950000000     0.114550000000   
C      0.077500000000     0.418600000000     0.161200000000   
C      0.123200000000     0.425700000000     0.175950000000   
H      0.137533333333     0.411650000000     0.199550000000   
C      0.147433333333     0.453400000000     0.155900000000   
H      0.178300000000     0.457300000000     0.165450000000   
C      0.126300000000     0.475550000000     0.121700000000   
H      0.142500000000     0.494950000000     0.109250000000   
C      0.330400000000     0.338800000000     0.180100000000   
H      0.309833333333     0.323750000000     0.162550000000   
C      0.020233333333     0.366300000000     0.158500000000   
H      0.014766666667     0.369650000000     0.127300000000   
C      0.051433333333     0.388700000000     0.183000000000   
C      0.057600000000     0.381800000000     0.228800000000   
H      0.078600000000     0.396100000000     0.246900000000   
C      0.033033333333     0.354000000000     0.248250000000   
H      0.038066666667     0.350100000000     0.279350000000   
C      0.091200000000     0.092150000000     0.445150000000   
C      0.120766666667     0.117300000000     0.418950000000   
C      0.162700000000     0.130450000000     0.437650000000   
H      0.173833333333     0.122600000000     0.466500000000   
C      0.188233333333     0.155050000000     0.414100000000   
H      0.215733333333     0.164350000000     0.428000000000   
C      0.174300000000     0.166250000000     0.370600000000   
C      0.133100000000     0.151450000000     0.351350000000   
H      0.122700000000     0.158200000000     0.321850000000   
C      0.107300000000     0.127050000000     0.374950000000   
H      0.080300000000     0.117050000000     0.360850000000   
C      0.259533333333     0.240250000000     0.342250000000   
H      0.282400000000     0.254750000000     0.357500000000   
C      0.236233333333     0.215150000000     0.366900000000   
H      0.243500000000     0.212950000000     0.398000000000   
C      0.201533333333     0.192950000000     0.345350000000   
C      0.193133333333     0.198200000000     0.299150000000   
H      0.170533333333     0.184150000000     0.282900000000   
C      0.217800000000     0.223950000000     0.277200000000   
H      0.210866666667     0.227000000000     0.246150000000   
Cd     0.043890000000     0.209205000000     0.240370000000   
O      0.079366666667     0.228930000000     0.307810000000   
O      0.105400000000     0.166800000000     0.234700000000   
O      0.053433333333     0.168835000000     0.176730000000   
O      0.021866666667     0.268060000000     0.298450000000   
N      0.002366666667     0.417515000000     0.474550000000   
N      0.251200000000     0.004990000000     0.047450000000   
C      0.058500000000     0.257660000000     0.318400000000   
C      0.080633333333     0.281350000000     0.356050000000   
C      0.056800000000     0.310000000000     0.375450000000   
H      0.026566666667     0.315050000000     0.364550000000   
C      0.077500000000     0.331400000000     0.411200000000   
C      0.123200000000     0.324300000000     0.425950000000   
H      0.137533333333     0.338350000000     0.449550000000   
C      0.147433333333     0.296600000000     0.405900000000   
H      0.178300000000     0.292700000000     0.415450000000   
C      0.126300000000     0.274450000000     0.371700000000   
H      0.142500000000     0.255050000000     0.359250000000   
C      0.330400000000     0.411200000000     0.430100000000   
H      0.309833333333     0.426250000000     0.412550000000   
C      0.020233333333     0.383700000000     0.408500000000   
H      0.014766666667     0.380350000000     0.377300000000   
C      0.051433333333     0.361300000000     0.433000000000   
C      0.057600000000     0.368200000000     0.478800000000   
H      0.078600000000     0.353900000000     0.496900000000   
C      0.033033333333     0.396000000000     0.498250000000   
H      0.038066666667     0.399900000000     0.029350000000   
C      0.091200000000     0.157850000000     0.195150000000   
C      0.120766666667     0.132700000000     0.168950000000   
C      0.162700000000     0.119550000000     0.187650000000   
H      0.173833333333     0.127400000000     0.216500000000   
C      0.188233333333     0.094950000000     0.164100000000   
H      0.215733333333     0.085650000000     0.178000000000   
C      0.174300000000     0.083750000000     0.120600000000   
C      0.133100000000     0.098550000000     0.101350000000   
H      0.122700000000     0.091800000000     0.071850000000   
C      0.107300000000     0.122950000000     0.124950000000   
H      0.080300000000     0.132950000000     0.110850000000   
C      0.259533333333     0.009750000000     0.092250000000   
H      0.282400000000     0.495250000000     0.107500000000   
C      0.236233333333     0.034850000000     0.116900000000   
H      0.243500000000     0.037050000000     0.148000000000   
C      0.201533333333     0.057050000000     0.095350000000   
C      0.193133333333     0.051800000000     0.049150000000   
H      0.170533333333     0.065850000000     0.032900000000   
C      0.217800000000     0.026050000000     0.027200000000   
H      0.210866666667     0.023000000000     0.496150000000   
Cd     0.289443333333     0.459205000000     0.009630000000   
O      0.253966666667     0.478930000000     0.442190000000   
O      0.227933333333     0.416800000000     0.015300000000   
O      0.279900000000     0.418835000000     0.073270000000   
O      0.311466666667     0.018060000000     0.451550000000   
N      0.330966666667     0.167515000000     0.275450000000   
N      0.082133333333     0.254990000000     0.202550000000   
C      0.274833333333     0.007660000000     0.431600000000   
C      0.252700000000     0.031350000000     0.393950000000   
C      0.276533333333     0.060000000000     0.374550000000   
H      0.306766666667     0.065050000000     0.385450000000   
C      0.255833333333     0.081400000000     0.338800000000   
C      0.210133333333     0.074300000000     0.324050000000   
H      0.195800000000     0.088350000000     0.300450000000   
C      0.185900000000     0.046600000000     0.344100000000   
H      0.155033333333     0.042700000000     0.334550000000   
C      0.207033333333     0.024450000000     0.378300000000   
H      0.190833333333     0.005050000000     0.390750000000   
C      0.002933333333     0.161200000000     0.319900000000   
H      0.023500000000     0.176250000000     0.337450000000   
C      0.313100000000     0.133700000000     0.341500000000   
H      0.318566666667     0.130350000000     0.372700000000   
C      0.281900000000     0.111300000000     0.317000000000   
C      0.275733333333     0.118200000000     0.271200000000   
H      0.254733333333     0.103900000000     0.253100000000   
C      0.300300000000     0.146000000000     0.251750000000   
H      0.295266666667     0.149900000000     0.220650000000   
C      0.242133333333     0.407850000000     0.054850000000   
C      0.212566666667     0.382700000000     0.081050000000   
C      0.170633333333     0.369550000000     0.062350000000   
H      0.159500000000     0.377400000000     0.033500000000   
C      0.145100000000     0.344950000000     0.085900000000   
H      0.117600000000     0.335650000000     0.072000000000   
C      0.159033333333     0.333750000000     0.129400000000   
C      0.200233333333     0.348550000000     0.148650000000   
H      0.210633333333     0.341800000000     0.178150000000   
C      0.226033333333     0.372950000000     0.125050000000   
H      0.253033333333     0.382950000000     0.139150000000   
C      0.073800000000     0.259750000000     0.157750000000   
H      0.050933333333     0.245250000000     0.142500000000   
C      0.097100000000     0.284850000000     0.133100000000   
H      0.089833333333     0.287050000000     0.102000000000   
C      0.131800000000     0.307050000000     0.154650000000   
C      0.140200000000     0.301800000000     0.200850000000   
H      0.162800000000     0.315850000000     0.217100000000   
C      0.115533333333     0.276050000000     0.222800000000   
H      0.122466666667     0.273000000000     0.253850000000   
Cd     0.289443333333     0.290795000000     0.759630000000   
O      0.253966666667     0.271070000000     0.692190000000   
O      0.227933333333     0.333200000000     0.765300000000   
O      0.279900000000     0.331165000000     0.823270000000   
O      0.311466666667     0.231940000000     0.701550000000   
N      0.330966666667     0.082485000000     0.525450000000   
N      0.082133333333     0.495010000000     0.952550000000   
C      0.274833333333     0.242340000000     0.681600000000   
C      0.252700000000     0.218650000000     0.643950000000   
C      0.276533333333     0.190000000000     0.624550000000   
H      0.306766666667     0.184950000000     0.635450000000   
C      0.255833333333     0.168600000000     0.588800000000   
C      0.210133333333     0.175700000000     0.574050000000   
H      0.195800000000     0.161650000000     0.550450000000   
C      0.185900000000     0.203400000000     0.594100000000   
H      0.155033333333     0.207300000000     0.584550000000   
C      0.207033333333     0.225550000000     0.628300000000   
H      0.190833333333     0.244950000000     0.640750000000   
C      0.002933333333     0.088800000000     0.569900000000   
H      0.023500000000     0.073750000000     0.587450000000   
C      0.313100000000     0.116300000000     0.591500000000   
H      0.318566666667     0.119650000000     0.622700000000   
C      0.281900000000     0.138700000000     0.567000000000   
C      0.275733333333     0.131800000000     0.521200000000   
H      0.254733333333     0.146100000000     0.503100000000   
C      0.300300000000     0.104000000000     0.501750000000   
H      0.295266666667     0.100100000000     0.970650000000   
C      0.242133333333     0.342150000000     0.804850000000   
C      0.212566666667     0.367300000000     0.831050000000   
C      0.170633333333     0.380450000000     0.812350000000   
H      0.159500000000     0.372600000000     0.783500000000   
C      0.145100000000     0.405050000000     0.835900000000   
H      0.117600000000     0.414350000000     0.822000000000   
C      0.159033333333     0.416250000000     0.879400000000   
C      0.200233333333     0.401450000000     0.898650000000   
H      0.210633333333     0.408200000000     0.928150000000   
C      0.226033333333     0.377050000000     0.875050000000   
H      0.253033333333     0.367050000000     0.889150000000   
C      0.073800000000     0.490250000000     0.907750000000   
H      0.050933333333     0.004750000000     0.892500000000   
C      0.097100000000     0.465150000000     0.883100000000   
H      0.089833333333     0.462950000000     0.852000000000   
C      0.131800000000     0.442950000000     0.904650000000   
C      0.140200000000     0.448200000000     0.950850000000   
H      0.162800000000     0.434150000000     0.967100000000   
C      0.115533333333     0.473950000000     0.972800000000   
H      0.122466666667     0.477000000000     0.503850000000   
Cd     0.043890000000     0.040795000000     0.990370000000   
O      0.079366666667     0.021070000000     0.557810000000   
O      0.105400000000     0.083200000000     0.984700000000   
O      0.053433333333     0.081165000000     0.926730000000   
O      0.021866666667     0.481940000000     0.548450000000   
N      0.002366666667     0.332485000000     0.724550000000   
N      0.251200000000     0.245010000000     0.797450000000   
C      0.058500000000     0.492340000000     0.568400000000   
C      0.080633333333     0.468650000000     0.606050000000   
C      0.056800000000     0.440000000000     0.625450000000   
H      0.026566666667     0.434950000000     0.614550000000   
C      0.077500000000     0.418600000000     0.661200000000   
C      0.123200000000     0.425700000000     0.675950000000   
H      0.137533333333     0.411650000000     0.699550000000   
C      0.147433333333     0.453400000000     0.655900000000   
H      0.178300000000     0.457300000000     0.665450000000   
C      0.126300000000     0.475550000000     0.621700000000   
H      0.142500000000     0.494950000000     0.609250000000   
C      0.330400000000     0.338800000000     0.680100000000   
H      0.309833333333     0.323750000000     0.662550000000   
C      0.020233333333     0.366300000000     0.658500000000   
H      0.014766666667     0.369650000000     0.627300000000   
C      0.051433333333     0.388700000000     0.683000000000   
C      0.057600000000     0.381800000000     0.728800000000   
H      0.078600000000     0.396100000000     0.746900000000   
C      0.033033333333     0.354000000000     0.748250000000   
H      0.038066666667     0.350100000000     0.779350000000   
C      0.091200000000     0.092150000000     0.945150000000   
C      0.120766666667     0.117300000000     0.918950000000   
C      0.162700000000     0.130450000000     0.937650000000   
H      0.173833333333     0.122600000000     0.966500000000   
C      0.188233333333     0.155050000000     0.914100000000   
H      0.215733333333     0.164350000000     0.928000000000   
C      0.174300000000     0.166250000000     0.870600000000   
C      0.133100000000     0.151450000000     0.851350000000   
H      0.122700000000     0.158200000000     0.821850000000   
C      0.107300000000     0.127050000000     0.874950000000   
H      0.080300000000     0.117050000000     0.860850000000   
C      0.259533333333     0.240250000000     0.842250000000   
H      0.282400000000     0.254750000000     0.857500000000   
C      0.236233333333     0.215150000000     0.866900000000   
H      0.243500000000     0.212950000000     0.898000000000   
C      0.201533333333     0.192950000000     0.845350000000   
C      0.193133333333     0.198200000000     0.799150000000   
H      0.170533333333     0.184150000000     0.782900000000   
C      0.217800000000     0.223950000000     0.777200000000   
H      0.210866666667     0.227000000000     0.746150000000   
Cd     0.043890000000     0.209205000000     0.740370000000   
O      0.079366666667     0.228930000000     0.807810000000   
O      0.105400000000     0.166800000000     0.734700000000   
O      0.053433333333     0.168835000000     0.676730000000   
O      0.021866666667     0.268060000000     0.798450000000   
N      0.002366666667     0.417515000000     0.974550000000   
N      0.251200000000     0.004990000000     0.547450000000   
C      0.058500000000     0.257660000000     0.818400000000   
C      0.080633333333     0.281350000000     0.856050000000   
C      0.056800000000     0.310000000000     0.875450000000   
H      0.026566666667     0.315050000000     0.864550000000   
C      0.077500000000     0.331400000000     0.911200000000   
C      0.123200000000     0.324300000000     0.925950000000   
H      0.137533333333     0.338350000000     0.949550000000   
C      0.147433333333     0.296600000000     0.905900000000   
H      0.178300000000     0.292700000000     0.915450000000   
C      0.126300000000     0.274450000000     0.871700000000   
H      0.142500000000     0.255050000000     0.859250000000   
C      0.330400000000     0.411200000000     0.930100000000   
H      0.309833333333     0.426250000000     0.912550000000   
C      0.020233333333     0.383700000000     0.908500000000   
H      0.014766666667     0.380350000000     0.877300000000   
C      0.051433333333     0.361300000000     0.933000000000   
C      0.057600000000     0.368200000000     0.978800000000   
H      0.078600000000     0.353900000000     0.996900000000   
C      0.033033333333     0.396000000000     0.998250000000   
H      0.038066666667     0.399900000000     0.529350000000   
C      0.091200000000     0.157850000000     0.695150000000   
C      0.120766666667     0.132700000000     0.668950000000   
C      0.162700000000     0.119550000000     0.687650000000   
H      0.173833333333     0.127400000000     0.716500000000   
C      0.188233333333     0.094950000000     0.664100000000   
H      0.215733333333     0.085650000000     0.678000000000   
C      0.174300000000     0.083750000000     0.620600000000   
C      0.133100000000     0.098550000000     0.601350000000   
H      0.122700000000     0.091800000000     0.571850000000   
C      0.107300000000     0.122950000000     0.624950000000   
H      0.080300000000     0.132950000000     0.610850000000   
C      0.259533333333     0.009750000000     0.592250000000   
H      0.282400000000     0.495250000000     0.607500000000   
C      0.236233333333     0.034850000000     0.616900000000   
H      0.243500000000     0.037050000000     0.648000000000   
C      0.201533333333     0.057050000000     0.595350000000   
C      0.193133333333     0.051800000000     0.549150000000   
H      0.170533333333     0.065850000000     0.532900000000   
C      0.217800000000     0.026050000000     0.527200000000   
H      0.210866666667     0.023000000000     0.996150000000   
Cd     0.289443333333     0.459205000000     0.509630000000   
O      0.253966666667     0.478930000000     0.942190000000   
O      0.227933333333     0.416800000000     0.515300000000   
O      0.279900000000     0.418835000000     0.573270000000   
O      0.311466666667     0.018060000000     0.951550000000   
N      0.330966666667     0.167515000000     0.775450000000   
N      0.082133333333     0.254990000000     0.702550000000   
C      0.274833333333     0.007660000000     0.931600000000   
C      0.252700000000     0.031350000000     0.893950000000   
C      0.276533333333     0.060000000000     0.874550000000   
H      0.306766666667     0.065050000000     0.885450000000   
C      0.255833333333     0.081400000000     0.838800000000   
C      0.210133333333     0.074300000000     0.824050000000   
H      0.195800000000     0.088350000000     0.800450000000   
C      0.185900000000     0.046600000000     0.844100000000   
H      0.155033333333     0.042700000000     0.834550000000   
C      0.207033333333     0.024450000000     0.878300000000   
H      0.190833333333     0.005050000000     0.890750000000   
C      0.002933333333     0.161200000000     0.819900000000   
H      0.023500000000     0.176250000000     0.837450000000   
C      0.313100000000     0.133700000000     0.841500000000   
H      0.318566666667     0.130350000000     0.872700000000   
C      0.281900000000     0.111300000000     0.817000000000   
C      0.275733333333     0.118200000000     0.771200000000   
H      0.254733333333     0.103900000000     0.753100000000   
C      0.300300000000     0.146000000000     0.751750000000   
H      0.295266666667     0.149900000000     0.720650000000   
C      0.242133333333     0.407850000000     0.554850000000   
C      0.212566666667     0.382700000000     0.581050000000   
C      0.170633333333     0.369550000000     0.562350000000   
H      0.159500000000     0.377400000000     0.533500000000   
C      0.145100000000     0.344950000000     0.585900000000   
H      0.117600000000     0.335650000000     0.572000000000   
C      0.159033333333     0.333750000000     0.629400000000   
C      0.200233333333     0.348550000000     0.648650000000   
H      0.210633333333     0.341800000000     0.678150000000   
C      0.226033333333     0.372950000000     0.625050000000   
H      0.253033333333     0.382950000000     0.639150000000   
C      0.073800000000     0.259750000000     0.657750000000   
H      0.050933333333     0.245250000000     0.642500000000   
C      0.097100000000     0.284850000000     0.633100000000   
H      0.089833333333     0.287050000000     0.602000000000   
C      0.131800000000     0.307050000000     0.654650000000   
C      0.140200000000     0.301800000000     0.700850000000   
H      0.162800000000     0.315850000000     0.717100000000   
C      0.115533333333     0.276050000000     0.722800000000   
H      0.122466666667     0.273000000000     0.753850000000   
Cd     0.289443333333     0.790795000000     0.259630000000   
O      0.253966666667     0.771070000000     0.192190000000   
O      0.227933333333     0.833200000000     0.265300000000   
O      0.279900000000     0.831165000000     0.323270000000   
O      0.311466666667     0.731940000000     0.201550000000   
N      0.330966666667     0.582485000000     0.025450000000   
N      0.082133333333     0.995010000000     0.452550000000   
C      0.274833333333     0.742340000000     0.181600000000   
C      0.252700000000     0.718650000000     0.143950000000   
C      0.276533333333     0.690000000000     0.124550000000   
H      0.306766666667     0.684950000000     0.135450000000   
C      0.255833333333     0.668600000000     0.088800000000   
C      0.210133333333     0.675700000000     0.074050000000   
H      0.195800000000     0.661650000000     0.050450000000   
C      0.185900000000     0.703400000000     0.094100000000   
H      0.155033333333     0.707300000000     0.084550000000   
C      0.207033333333     0.725550000000     0.128300000000   
H      0.190833333333     0.744950000000     0.140750000000   
C      0.002933333333     0.588800000000     0.069900000000   
H      0.023500000000     0.573750000000     0.087450000000   
C      0.313100000000     0.616300000000     0.091500000000   
H      0.318566666667     0.619650000000     0.122700000000   
C      0.281900000000     0.638700000000     0.067000000000   
C      0.275733333333     0.631800000000     0.021200000000   
H      0.254733333333     0.646100000000     0.003100000000   
C      0.300300000000     0.604000000000     0.001750000000   
H      0.295266666667     0.600100000000     0.470650000000   
C      0.242133333333     0.842150000000     0.304850000000   
C      0.212566666667     0.867300000000     0.331050000000   
C      0.170633333333     0.880450000000     0.312350000000   
H      0.159500000000     0.872600000000     0.283500000000   
C      0.145100000000     0.905050000000     0.335900000000   
H      0.117600000000     0.914350000000     0.322000000000   
C      0.159033333333     0.916250000000     0.379400000000   
C      0.200233333333     0.901450000000     0.398650000000   
H      0.210633333333     0.908200000000     0.428150000000   
C      0.226033333333     0.877050000000     0.375050000000   
H      0.253033333333     0.867050000000     0.389150000000   
C      0.073800000000     0.990250000000     0.407750000000   
H      0.050933333333     0.504750000000     0.392500000000   
C      0.097100000000     0.965150000000     0.383100000000   
H      0.089833333333     0.962950000000     0.352000000000   
C      0.131800000000     0.942950000000     0.404650000000   
C      0.140200000000     0.948200000000     0.450850000000   
H      0.162800000000     0.934150000000     0.467100000000   
C      0.115533333333     0.973950000000     0.472800000000   
H      0.122466666667     0.977000000000     0.003850000000   
Cd     0.043890000000     0.540795000000     0.490370000000   
O      0.079366666667     0.521070000000     0.057810000000   
O      0.105400000000     0.583200000000     0.484700000000   
O      0.053433333333     0.581165000000     0.426730000000   
O      0.021866666667     0.981940000000     0.048450000000   
N      0.002366666667     0.832485000000     0.224550000000   
N      0.251200000000     0.745010000000     0.297450000000   
C      0.058500000000     0.992340000000     0.068400000000   
C      0.080633333333     0.968650000000     0.106050000000   
C      0.056800000000     0.940000000000     0.125450000000   
H      0.026566666667     0.934950000000     0.114550000000   
C      0.077500000000     0.918600000000     0.161200000000   
C      0.123200000000     0.925700000000     0.175950000000   
H      0.137533333333     0.911650000000     0.199550000000   
C      0.147433333333     0.953400000000     0.155900000000   
H      0.178300000000     0.957300000000     0.165450000000   
C      0.126300000000     0.975550000000     0.121700000000   
H      0.142500000000     0.994950000000     0.109250000000   
C      0.330400000000     0.838800000000     0.180100000000   
H      0.309833333333     0.823750000000     0.162550000000   
C      0.020233333333     0.866300000000     0.158500000000   
H      0.014766666667     0.869650000000     0.127300000000   
C      0.051433333333     0.888700000000     0.183000000000   
C      0.057600000000     0.881800000000     0.228800000000   
H      0.078600000000     0.896100000000     0.246900000000   
C      0.033033333333     0.854000000000     0.248250000000   
H      0.038066666667     0.850100000000     0.279350000000   
C      0.091200000000     0.592150000000     0.445150000000   
C      0.120766666667     0.617300000000     0.418950000000   
C      0.162700000000     0.630450000000     0.437650000000   
H      0.173833333333     0.622600000000     0.466500000000   
C      0.188233333333     0.655050000000     0.414100000000   
H      0.215733333333     0.664350000000     0.428000000000   
C      0.174300000000     0.666250000000     0.370600000000   
C      0.133100000000     0.651450000000     0.351350000000   
H      0.122700000000     0.658200000000     0.321850000000   
C      0.107300000000     0.627050000000     0.374950000000   
H      0.080300000000     0.617050000000     0.360850000000   
C      0.259533333333     0.740250000000     0.342250000000   
H      0.282400000000     0.754750000000     0.357500000000   
C      0.236233333333     0.715150000000     0.366900000000   
H      0.243500000000     0.712950000000     0.398000000000   
C      0.201533333333     0.692950000000     0.345350000000   
C      0.193133333333     0.698200000000     0.299150000000   
H      0.170533333333     0.684150000000     0.282900000000   
C      0.217800000000     0.723950000000     0.277200000000   
H      0.210866666667     0.727000000000     0.246150000000   
Cd     0.043890000000     0.709205000000     0.240370000000   
O      0.079366666667     0.728930000000     0.307810000000   