%BLOCK LATTICE_CART
ang    # angstrom units
  11.426900000000    0.000000000000     0.000000000000   
 -1.337522590831     11.348351286818    0.000000000000   
 -1.565605002316    -1.760964509716     18.725431599358  
%ENDBLOCK LATTICE_CART

%BLOCK POSITIONS_FRAC
C      0.274643333333     0.229550000000     0.458235000000   
C      0.066460000000     0.269773333333     0.157100000000   
C      0.312113333333     0.026100000000     0.441615000000   
C      0.291846666667     0.206806666667     0.433070000000   
C      0.211316666667     0.120636666667     0.407155000000   
C      0.271470000000     0.171796666667     0.416520000000   
C      0.216986666667     0.180886666667     0.450730000000   
C      0.237160000000     0.216320000000     0.467240000000   
C      0.234070000000     0.158703333333     0.425045000000   
C      0.266873333333     0.063560000000     0.342900000000   
C      0.039503333333     0.296843333333     0.157000000000   
C      0.293830000000     0.036490000000     0.343000000000   
C      0.174630000000     0.099263333333     0.324955000000   
C      0.103783333333     0.058690000000     0.291765000000   
C      0.117013333333     0.096173333333     0.282760000000   
C      0.152446666667     0.116346666667     0.299270000000   
C      0.161536666667     0.061863333333     0.333480000000   
C      0.212696666667     0.122016666667     0.342845000000   
C      0.126526666667     0.041486666667     0.316930000000   
C      0.307233333333     0.021220000000     0.308385000000   
C      0.269773333333     0.066460000000     0.407100000000   
C      0.065756666667     0.036530000000     0.274960000000   
C      0.267576666667     0.296803333333     0.225040000000   
C      0.158703333333     0.234070000000     0.175045000000   
C      0.229550000000     0.274643333333     0.208235000000   
C      0.024010000000     0.309323333333     0.125000000000   
C      0.079280000000     0.254053333333     0.125000000000   
C      0.309323333333     0.024010000000     0.375000000000   
C      0.254053333333     0.079280000000     0.375000000000   
C      0.021220000000     0.307233333333     0.058385000000   
C      0.041486666667     0.126526666667     0.066930000000   
C      0.122016666667     0.212696666667     0.092845000000   
C      0.061863333333     0.161536666667     0.083480000000   
C      0.116346666667     0.152446666667     0.049270000000   
C      0.096173333333     0.117013333333     0.032760000000   
C      0.058690000000     0.103783333333     0.041765000000   
C      0.099263333333     0.174630000000     0.074955000000   
C      0.036530000000     0.065756666667     0.024960000000   
C      0.036490000000     0.293830000000     0.093000000000   
C      0.063560000000     0.266873333333     0.092900000000   
C      0.026100000000     0.312113333333     0.191615000000   
C      0.206806666667     0.291846666667     0.183070000000   
C      0.120636666667     0.211316666667     0.157155000000   
C      0.171796666667     0.271470000000     0.166520000000   
C      0.180886666667     0.216986666667     0.200730000000   
C      0.216320000000     0.237160000000     0.217240000000   
C      0.296843333333     0.039503333333     0.407000000000   
C      0.296803333333     0.267576666667     0.475040000000   
Cu     0.323936666667     0.031833333333     0.236025000000   
Cu     0.301500000000     0.009396666667     0.013975000000   
Cu     0.009396666667     0.301500000000     0.263975000000   
Cu     0.031833333333     0.323936666667     0.486025000000   
H      0.208366666667     0.149766666667     0.348750000000   
H      0.256866666667     0.071666666667     0.320850000000   
H      0.101933333333     0.108066666667     0.265350000000   
H      0.161466666667     0.141866666667     0.292950000000   
H      0.176633333333     0.049966666667     0.350850000000   
H      0.005466666667     0.327866666667     0.125000000000   
H      0.233133333333     0.121933333333     0.325750000000   
H      0.118033333333     0.015633333333     0.322800000000   
H      0.261666666667     0.076466666667     0.429150000000   
H      0.225266666667     0.231400000000     0.484650000000   
H      0.283366666667     0.156700000000     0.399150000000   
H      0.183566666667     0.124966666667     0.401250000000   
H      0.211400000000     0.100200000000     0.424250000000   
H      0.191466666667     0.171866666667     0.457050000000   
H      0.076466666667     0.261666666667     0.179150000000   
H      0.327866666667     0.005466666667     0.375000000000   
H      0.015633333333     0.118033333333     0.072800000000   
H      0.121933333333     0.233133333333     0.075750000000   
H      0.317700000000     0.215300000000     0.427200000000   
H      0.049966666667     0.176633333333     0.100850000000   
H      0.141866666667     0.161466666667     0.042950000000   
H      0.108066666667     0.101933333333     0.015350000000   
H      0.149766666667     0.208366666667     0.098750000000   
H      0.215300000000     0.317700000000     0.177200000000   
H      0.100200000000     0.211400000000     0.174250000000   
H      0.124966666667     0.183566666667     0.151250000000   
H      0.156700000000     0.283366666667     0.149150000000   
H      0.171866666667     0.191466666667     0.207050000000   
H      0.231400000000     0.225266666667     0.234650000000   
H      0.071666666667     0.256866666667     0.070850000000   
N      0.227133333333     0.106200000000     0.375000000000   
N      0.106200000000     0.227133333333     0.125000000000   
O      0.029230000000     0.290783333333     0.217015000000   
O      0.055610000000     0.043616666667     0.006300000000   
O      0.042550000000     0.304103333333     0.032985000000   
O      0.012383333333     0.011230000000     0.192655000000   
O      0.274560000000     0.332280000000     0.219325000000   
O      0.289716666667     0.277723333333     0.243700000000   
O      0.011230000000     0.012383333333     0.442655000000   
O      0.001053333333     0.058773333333     0.030675000000   
O      0.277723333333     0.289716666667     0.493700000000   
O      0.290783333333     0.029230000000     0.467015000000   
O      0.320950000000     0.322103333333     0.307345000000   
O      0.058773333333     0.001053333333     0.280675000000   
O      0.043616666667     0.055610000000     0.256300000000   
O      0.304103333333     0.042550000000     0.282985000000   
O      0.332280000000     0.274560000000     0.469325000000   
O      0.322103333333     0.320950000000     0.057345000000   
C      0.274643333333     0.229550000000     0.958235000000   
C      0.066460000000     0.269773333333     0.657100000000   
C      0.312113333333     0.026100000000     0.941615000000   
C      0.291846666667     0.206806666667     0.933070000000   
C      0.211316666667     0.120636666667     0.907155000000   
C      0.271470000000     0.171796666667     0.916520000000   
C      0.216986666667     0.180886666667     0.950730000000   
C      0.237160000000     0.216320000000     0.967240000000   
C      0.234070000000     0.158703333333     0.925045000000   
C      0.266873333333     0.063560000000     0.842900000000   
C      0.039503333333     0.296843333333     0.657000000000   
C      0.293830000000     0.036490000000     0.843000000000   
C      0.174630000000     0.099263333333     0.824955000000   
C      0.103783333333     0.058690000000     0.791765000000   
C      0.117013333333     0.096173333333     0.782760000000   
C      0.152446666667     0.116346666667     0.799270000000   
C      0.161536666667     0.061863333333     0.833480000000   
C      0.212696666667     0.122016666667     0.842845000000   
C      0.126526666667     0.041486666667     0.816930000000   
C      0.307233333333     0.021220000000     0.808385000000   
C      0.269773333333     0.066460000000     0.907100000000   
C      0.065756666667     0.036530000000     0.774960000000   
C      0.267576666667     0.296803333333     0.725040000000   
C      0.158703333333     0.234070000000     0.675045000000   
C      0.229550000000     0.274643333333     0.708235000000   
C      0.024010000000     0.309323333333     0.625000000000   
C      0.079280000000     0.254053333333     0.625000000000   
C      0.309323333333     0.024010000000     0.875000000000   
C      0.254053333333     0.079280000000     0.875000000000   
C      0.021220000000     0.307233333333     0.558385000000   
C      0.041486666667     0.126526666667     0.566930000000   
C      0.122016666667     0.212696666667     0.592845000000   
C      0.061863333333     0.161536666667     0.583480000000   
C      0.116346666667     0.152446666667     0.549270000000   
C      0.096173333333     0.117013333333     0.532760000000   
C      0.058690000000     0.103783333333     0.541765000000   
C      0.099263333333     0.174630000000     0.574955000000   
C      0.036530000000     0.065756666667     0.524960000000   
C      0.036490000000     0.293830000000     0.593000000000   
C      0.063560000000     0.266873333333     0.592900000000   
C      0.026100000000     0.312113333333     0.691615000000   
C      0.206806666667     0.291846666667     0.683070000000   
C      0.120636666667     0.211316666667     0.657155000000   
C      0.171796666667     0.271470000000     0.666520000000   
C      0.180886666667     0.216986666667     0.700730000000   
C      0.216320000000     0.237160000000     0.717240000000   
C      0.296843333333     0.039503333333     0.907000000000   
C      0.296803333333     0.267576666667     0.975040000000   
Cu     0.323936666667     0.031833333333     0.736025000000   
Cu     0.301500000000     0.009396666667     0.513975000000   
Cu     0.009396666667     0.301500000000     0.763975000000   
Cu     0.031833333333     0.323936666667     0.986025000000   
H      0.208366666667     0.149766666667     0.848750000000   
H      0.256866666667     0.071666666667     0.820850000000   
H      0.101933333333     0.108066666667     0.765350000000   
H      0.161466666667     0.141866666667     0.792950000000   
H      0.176633333333     0.049966666667     0.850850000000   
H      0.005466666667     0.327866666667     0.625000000000   
H      0.233133333333     0.121933333333     0.825750000000   
H      0.118033333333     0.015633333333     0.822800000000   
H      0.261666666667     0.076466666667     0.929150000000   
H      0.225266666667     0.231400000000     0.984650000000   
H      0.283366666667     0.156700000000     0.899150000000   
H      0.183566666667     0.124966666667     0.901250000000   
H      0.211400000000     0.100200000000     0.924250000000   
H      0.191466666667     0.171866666667     0.957050000000   
H      0.076466666667     0.261666666667     0.679150000000   
H      0.327866666667     0.005466666667     0.875000000000   
H      0.015633333333     0.118033333333     0.572800000000   
H      0.121933333333     0.233133333333     0.575750000000   
H      0.317700000000     0.215300000000     0.927200000000   
H      0.049966666667     0.176633333333     0.600850000000   
H      0.141866666667     0.161466666667     0.542950000000   
H      0.108066666667     0.101933333333     0.515350000000   
H      0.149766666667     0.208366666667     0.598750000000   
H      0.215300000000     0.317700000000     0.677200000000   
H      0.100200000000     0.211400000000     0.674250000000   
H      0.124966666667     0.183566666667     0.651250000000   
H      0.156700000000     0.283366666667     0.649150000000   
H      0.171866666667     0.191466666667     0.707050000000   
H      0.231400000000     0.225266666667     0.734650000000   
H      0.071666666667     0.256866666667     0.570850000000   
N      0.227133333333     0.106200000000     0.875000000000   
N      0.106200000000     0.227133333333     0.625000000000   
O      0.029230000000     0.290783333333     0.717015000000   
O      0.055610000000     0.043616666667     0.506300000000   
O      0.042550000000     0.304103333333     0.532985000000   
O      0.012383333333     0.011230000000     0.692655000000   
O      0.274560000000     0.332280000000     0.719325000000   
O      0.289716666667     0.277723333333     0.743700000000   
O      0.011230000000     0.012383333333     0.942655000000   
O      0.001053333333     0.058773333333     0.530675000000   
O      0.277723333333     0.289716666667     0.993700000000   
O      0.290783333333     0.029230000000     0.967015000000   
O      0.320950000000     0.322103333333     0.807345000000   
O      0.058773333333     0.001053333333     0.780675000000   
O      0.043616666667     0.055610000000     0.756300000000   
O      0.304103333333     0.042550000000     0.782985000000   
O      0.332280000000     0.274560000000     0.969325000000   
O      0.322103333333     0.320950000000     0.557345000000   
C      0.274643333333     0.562883333333     0.458235000000   
C      0.066460000000     0.603106666667     0.157100000000   
C      0.312113333333     0.359433333333     0.441615000000   
C      0.291846666667     0.540140000000     0.433070000000   
C      0.211316666667     0.453970000000     0.407155000000   
C      0.271470000000     0.505130000000     0.416520000000   
C      0.216986666667     0.514220000000     0.450730000000   
C      0.237160000000     0.549653333333     0.467240000000   
C      0.234070000000     0.492036666667     0.425045000000   
C      0.266873333333     0.396893333333     0.342900000000   
C      0.039503333333     0.630176666667     0.157000000000   
C      0.293830000000     0.369823333333     0.343000000000   
C      0.174630000000     0.432596666667     0.324955000000   
C      0.103783333333     0.392023333333     0.291765000000   
C      0.117013333333     0.429506666667     0.282760000000   
C      0.152446666667     0.449680000000     0.299270000000   
C      0.161536666667     0.395196666667     0.333480000000   
C      0.212696666667     0.455350000000     0.342845000000   
C      0.126526666667     0.374820000000     0.316930000000   
C      0.307233333333     0.354553333333     0.308385000000   
C      0.269773333333     0.399793333333     0.407100000000   
C      0.065756666667     0.369863333333     0.274960000000   
C      0.267576666667     0.630136666667     0.225040000000   
C      0.158703333333     0.567403333333     0.175045000000   
C      0.229550000000     0.607976666667     0.208235000000   
C      0.024010000000     0.642656666667     0.125000000000   
C      0.079280000000     0.587386666667     0.125000000000   
C      0.309323333333     0.357343333333     0.375000000000   
C      0.254053333333     0.412613333333     0.375000000000   
C      0.021220000000     0.640566666667     0.058385000000   
C      0.041486666667     0.459860000000     0.066930000000   
C      0.122016666667     0.546030000000     0.092845000000   
C      0.061863333333     0.494870000000     0.083480000000   
C      0.116346666667     0.485780000000     0.049270000000   
C      0.096173333333     0.450346666667     0.032760000000   
C      0.058690000000     0.437116666667     0.041765000000   
C      0.099263333333     0.507963333333     0.074955000000   
C      0.036530000000     0.399090000000     0.024960000000   
C      0.036490000000     0.627163333333     0.093000000000   
C      0.063560000000     0.600206666667     0.092900000000   
C      0.026100000000     0.645446666667     0.191615000000   
C      0.206806666667     0.625180000000     0.183070000000   
C      0.120636666667     0.544650000000     0.157155000000   
C      0.171796666667     0.604803333333     0.166520000000   
C      0.180886666667     0.550320000000     0.200730000000   
C      0.216320000000     0.570493333333     0.217240000000   
C      0.296843333333     0.372836666667     0.407000000000   
C      0.296803333333     0.600910000000     0.475040000000   
Cu     0.323936666667     0.365166666667     0.236025000000   
Cu     0.301500000000     0.342730000000     0.013975000000   
Cu     0.009396666667     0.634833333333     0.263975000000   
Cu     0.031833333333     0.657270000000     0.486025000000   
H      0.208366666667     0.483100000000     0.348750000000   
H      0.256866666667     0.405000000000     0.320850000000   
H      0.101933333333     0.441400000000     0.265350000000   
H      0.161466666667     0.475200000000     0.292950000000   
H      0.176633333333     0.383300000000     0.350850000000   
H      0.005466666667     0.661200000000     0.125000000000   
H      0.233133333333     0.455266666667     0.325750000000   
H      0.118033333333     0.348966666667     0.322800000000   
H      0.261666666667     0.409800000000     0.429150000000   
H      0.225266666667     0.564733333333     0.484650000000   
H      0.283366666667     0.490033333333     0.399150000000   
H      0.183566666667     0.458300000000     0.401250000000   
H      0.211400000000     0.433533333333     0.424250000000   
H      0.191466666667     0.505200000000     0.457050000000   
H      0.076466666667     0.595000000000     0.179150000000   
H      0.327866666667     0.338800000000     0.375000000000   
H      0.015633333333     0.451366666667     0.072800000000   
H      0.121933333333     0.566466666667     0.075750000000   
H      0.317700000000     0.548633333333     0.427200000000   
H      0.049966666667     0.509966666667     0.100850000000   
H      0.141866666667     0.494800000000     0.042950000000   
H      0.108066666667     0.435266666667     0.015350000000   
H      0.149766666667     0.541700000000     0.098750000000   
H      0.215300000000     0.651033333333     0.177200000000   
H      0.100200000000     0.544733333333     0.174250000000   
H      0.124966666667     0.516900000000     0.151250000000   
H      0.156700000000     0.616700000000     0.149150000000   
H      0.171866666667     0.524800000000     0.207050000000   
H      0.231400000000     0.558600000000     0.234650000000   
H      0.071666666667     0.590200000000     0.070850000000   
N      0.227133333333     0.439533333333     0.375000000000   
N      0.106200000000     0.560466666667     0.125000000000   
O      0.029230000000     0.624116666667     0.217015000000   
O      0.055610000000     0.376950000000     0.006300000000   
O      0.042550000000     0.637436666667     0.032985000000   
O      0.012383333333     0.344563333333     0.192655000000   
O      0.274560000000     0.665613333333     0.219325000000   
O      0.289716666667     0.611056666667     0.243700000000   
O      0.011230000000     0.345716666667     0.442655000000   
O      0.001053333333     0.392106666667     0.030675000000   
O      0.277723333333     0.623050000000     0.493700000000   
O      0.290783333333     0.362563333333     0.467015000000   
O      0.320950000000     0.655436666667     0.307345000000   
O      0.058773333333     0.334386666667     0.280675000000   
O      0.043616666667     0.388943333333     0.256300000000   
O      0.304103333333     0.375883333333     0.282985000000   
O      0.332280000000     0.607893333333     0.469325000000   
O      0.322103333333     0.654283333333     0.057345000000   
C      0.274643333333     0.562883333333     0.958235000000   
C      0.066460000000     0.603106666667     0.657100000000   
C      0.312113333333     0.359433333333     0.941615000000   
C      0.291846666667     0.540140000000     0.933070000000   
C      0.211316666667     0.453970000000     0.907155000000   
C      0.271470000000     0.505130000000     0.916520000000   
C      0.216986666667     0.514220000000     0.950730000000   
C      0.237160000000     0.549653333333     0.967240000000   
C      0.234070000000     0.492036666667     0.925045000000   
C      0.266873333333     0.396893333333     0.842900000000   
C      0.039503333333     0.630176666667     0.657000000000   
C      0.293830000000     0.369823333333     0.843000000000   
C      0.174630000000     0.432596666667     0.824955000000   
C      0.103783333333     0.392023333333     0.791765000000   
C      0.117013333333     0.429506666667     0.782760000000   
C      0.152446666667     0.449680000000     0.799270000000   
C      0.161536666667     0.395196666667     0.833480000000   
C      0.212696666667     0.455350000000     0.842845000000   
C      0.126526666667     0.374820000000     0.816930000000   
C      0.307233333333     0.354553333333     0.808385000000   
C      0.269773333333     0.399793333333     0.907100000000   
C      0.065756666667     0.369863333333     0.774960000000   
C      0.267576666667     0.630136666667     0.725040000000   
C      0.158703333333     0.567403333333     0.675045000000   
C      0.229550000000     0.607976666667     0.708235000000   
C      0.024010000000     0.642656666667     0.625000000000   
C      0.079280000000     0.587386666667     0.625000000000   
C      0.309323333333     0.357343333333     0.875000000000   
C      0.254053333333     0.412613333333     0.875000000000   
C      0.021220000000     0.640566666667     0.558385000000   
C      0.041486666667     0.459860000000     0.566930000000   
C      0.122016666667     0.546030000000     0.592845000000   
C      0.061863333333     0.494870000000     0.583480000000   
C      0.116346666667     0.485780000000     0.549270000000   
C      0.096173333333     0.450346666667     0.532760000000   
C      0.058690000000     0.437116666667     0.541765000000   
C      0.099263333333     0.507963333333     0.574955000000   
C      0.036530000000     0.399090000000     0.524960000000   
C      0.036490000000     0.627163333333     0.593000000000   
C      0.063560000000     0.600206666667     0.592900000000   
C      0.026100000000     0.645446666667     0.691615000000   
C      0.206806666667     0.625180000000     0.683070000000   
C      0.120636666667     0.544650000000     0.657155000000   
C      0.171796666667     0.604803333333     0.666520000000   
C      0.180886666667     0.550320000000     0.700730000000   
C      0.216320000000     0.570493333333     0.717240000000   
C      0.296843333333     0.372836666667     0.907000000000   
C      0.296803333333     0.600910000000     0.975040000000   
Cu     0.323936666667     0.365166666667     0.736025000000   
Cu     0.301500000000     0.342730000000     0.513975000000   
Cu     0.009396666667     0.634833333333     0.763975000000   
Cu     0.031833333333     0.657270000000     0.986025000000   
H      0.208366666667     0.483100000000     0.848750000000   
H      0.256866666667     0.405000000000     0.820850000000   
H      0.101933333333     0.441400000000     0.765350000000   
H      0.161466666667     0.475200000000     0.792950000000   
H      0.176633333333     0.383300000000     0.850850000000   
H      0.005466666667     0.661200000000     0.625000000000   
H      0.233133333333     0.455266666667     0.825750000000   
H      0.118033333333     0.348966666667     0.822800000000   
H      0.261666666667     0.409800000000     0.929150000000   
H      0.225266666667     0.564733333333     0.984650000000   
H      0.283366666667     0.490033333333     0.899150000000   
H      0.183566666667     0.458300000000     0.901250000000   
H      0.211400000000     0.433533333333     0.924250000000   
H      0.191466666667     0.505200000000     0.957050000000   
H      0.076466666667     0.595000000000     0.679150000000   
H      0.327866666667     0.338800000000     0.875000000000   
H      0.015633333333     0.451366666667     0.572800000000   
H      0.121933333333     0.566466666667     0.575750000000   
H      0.317700000000     0.548633333333     0.927200000000   
H      0.049966666667     0.509966666667     0.600850000000   
H      0.141866666667     0.494800000000     0.542950000000   
H      0.108066666667     0.435266666667     0.515350000000   
H      0.149766666667     0.541700000000     0.598750000000   
H      0.215300000000     0.651033333333     0.677200000000   
H      0.100200000000     0.544733333333     0.674250000000   
H      0.124966666667     0.516900000000     0.651250000000   
H      0.156700000000     0.616700000000     0.649150000000   
H      0.171866666667     0.524800000000     0.707050000000   
H      0.231400000000     0.558600000000     0.734650000000   
H      0.071666666667     0.590200000000     0.570850000000   
N      0.227133333333     0.439533333333     0.875000000000   
N      0.106200000000     0.560466666667     0.625000000000   
O      0.029230000000     0.624116666667     0.717015000000   
O      0.055610000000     0.376950000000     0.506300000000   
O      0.042550000000     0.637436666667     0.532985000000   
O      0.012383333333     0.344563333333     0.692655000000   
O      0.274560000000     0.665613333333     0.719325000000   
O      0.289716666667     0.611056666667     0.743700000000   
O      0.011230000000     0.345716666667     0.942655000000   
O      0.001053333333     0.392106666667     0.530675000000   
O      0.277723333333     0.623050000000     0.993700000000   
O      0.290783333333     0.362563333333     0.967015000000   
O      0.320950000000     0.655436666667     0.807345000000   
O      0.058773333333     0.334386666667     0.780675000000   
O      0.043616666667     0.388943333333     0.756300000000   
O      0.304103333333     0.375883333333     0.782985000000   
O      0.332280000000     0.607893333333     0.969325000000   
O      0.322103333333     0.654283333333     0.557345000000   
C      0.274643333333     0.896216666667     0.458235000000   
C      0.066460000000     0.936440000000     0.157100000000   
C      0.312113333333     0.692766666667     0.441615000000   
C      0.291846666667     0.873473333333     0.433070000000   
C      0.211316666667     0.787303333333     0.407155000000   
C      0.271470000000     0.838463333333     0.416520000000   
C      0.216986666667     0.847553333333     0.450730000000   
C      0.237160000000     0.882986666667     0.467240000000   
C      0.234070000000     0.825370000000     0.425045000000   
C      0.266873333333     0.730226666667     0.342900000000   
C      0.039503333333     0.963510000000     0.157000000000   
C      0.293830000000     0.703156666667     0.343000000000   
C      0.174630000000     0.765930000000     0.324955000000   
C      0.103783333333     0.725356666667     0.291765000000   
C      0.117013333333     0.762840000000     0.282760000000   
C      0.152446666667     0.783013333333     0.299270000000   
C      0.161536666667     0.728530000000     0.333480000000   
C      0.212696666667     0.788683333333     0.342845000000   
C      0.126526666667     0.708153333333     0.316930000000   
C      0.307233333333     0.687886666667     0.308385000000   
C      0.269773333333     0.733126666667     0.407100000000   
C      0.065756666667     0.703196666667     0.274960000000   
C      0.267576666667     0.963470000000     0.225040000000   
C      0.158703333333     0.900736666667     0.175045000000   
C      0.229550000000     0.941310000000     0.208235000000   
C      0.024010000000     0.975990000000     0.125000000000   
C      0.079280000000     0.920720000000     0.125000000000   
C      0.309323333333     0.690676666667     0.375000000000   
C      0.254053333333     0.745946666667     0.375000000000   
C      0.021220000000     0.973900000000     0.058385000000   
C      0.041486666667     0.793193333333     0.066930000000   
C      0.122016666667     0.879363333333     0.092845000000   
C      0.061863333333     0.828203333333     0.083480000000   
C      0.116346666667     0.819113333333     0.049270000000   
C      0.096173333333     0.783680000000     0.032760000000   
C      0.058690000000     0.770450000000     0.041765000000   
C      0.099263333333     0.841296666667     0.074955000000   
C      0.036530000000     0.732423333333     0.024960000000   
C      0.036490000000     0.960496666667     0.093000000000   
C      0.063560000000     0.933540000000     0.092900000000   
C      0.026100000000     0.978780000000     0.191615000000   
C      0.206806666667     0.958513333333     0.183070000000   
C      0.120636666667     0.877983333333     0.157155000000   
C      0.171796666667     0.938136666667     0.166520000000   
C      0.180886666667     0.883653333333     0.200730000000   
C      0.216320000000     0.903826666667     0.217240000000   
C      0.296843333333     0.706170000000     0.407000000000   
C      0.296803333333     0.934243333333     0.475040000000   
Cu     0.323936666667     0.698500000000     0.236025000000   
Cu     0.301500000000     0.676063333333     0.013975000000   
Cu     0.009396666667     0.968166666667     0.263975000000   
Cu     0.031833333333     0.990603333333     0.486025000000   
H      0.208366666667     0.816433333333     0.348750000000   
H      0.256866666667     0.738333333333     0.320850000000   
H      0.101933333333     0.774733333333     0.265350000000   
H      0.161466666667     0.808533333333     0.292950000000   
H      0.176633333333     0.716633333333     0.350850000000   
H      0.005466666667     0.994533333333     0.125000000000   
H      0.233133333333     0.788600000000     0.325750000000   
H      0.118033333333     0.682300000000     0.322800000000   
H      0.261666666667     0.743133333333     0.429150000000   
H      0.225266666667     0.898066666667     0.484650000000   
H      0.283366666667     0.823366666667     0.399150000000   
H      0.183566666667     0.791633333333     0.401250000000   
H      0.211400000000     0.766866666667     0.424250000000   
H      0.191466666667     0.838533333333     0.457050000000   
H      0.076466666667     0.928333333333     0.179150000000   
H      0.327866666667     0.672133333333     0.375000000000   
H      0.015633333333     0.784700000000     0.072800000000   
H      0.121933333333     0.899800000000     0.075750000000   
H      0.317700000000     0.881966666667     0.427200000000   
H      0.049966666667     0.843300000000     0.100850000000   