%BLOCK LATTICE_CART
ang    # angstrom units
  7.356000000000     0.000000000000     0.000000000000   
 -0.758238847258     10.138686446010    0.000000000000   
  0.000000000000     0.000000000000     18.208000000000  
%ENDBLOCK LATTICE_CART

%BLOCK POSITIONS_FRAC
C      0.075775000000     0.273400000000     0.223650000000   
C      0.183100000000     0.143900000000     0.047650000000   
C      0.160350000000     0.217566666667     0.052000000000   
C      0.174225000000     0.059933333333     0.276350000000   
C      0.199375000000     0.315900000000     0.280400000000   
C      0.223475000000     0.287666666667     0.339250000000   
C      0.225000000000     0.002733333333     0.396200000000   
C      0.216475000000     0.327966666667     0.356000000000   
C      0.200175000000     0.028166666667     0.334950000000   
C      0.191900000000     0.022766666667     0.297650000000   
C      0.214650000000     0.282433333333     0.302000000000   
C      0.150000000000     0.163933333333     0.146200000000   
C      0.151525000000     0.212333333333     0.089250000000   
C      0.175625000000     0.184100000000     0.030400000000   
C      0.200775000000     0.106733333333     0.026350000000   
C      0.035350000000     0.050900000000     0.198000000000   
C      0.058100000000     0.310566666667     0.202350000000   
C      0.049825000000     0.305166666667     0.165050000000   
C      0.033525000000     0.005366666667     0.144000000000   
C      0.025000000000     0.330600000000     0.103800000000   
C      0.026525000000     0.045666666667     0.160750000000   
C      0.050625000000     0.017433333333     0.219600000000   
C      0.089650000000     0.115766666667     0.448000000000   
C      0.066900000000     0.189433333333     0.452350000000   
C      0.075175000000     0.194833333333     0.415050000000   
C      0.091475000000     0.161300000000     0.394000000000   
C      0.100000000000     0.169400000000     0.353800000000   
C      0.098475000000     0.121000000000     0.410750000000   
C      0.074375000000     0.149233333333     0.469600000000   
C      0.049225000000     0.226600000000     0.473650000000   
C      0.174825000000     0.138500000000     0.084950000000   
C      0.158525000000     0.172033333333     0.106000000000   
Cu     0.216505000000     0.072330000000     0.452460000000   
Cu     0.158495000000     0.094336666667     0.202460000000   
Cu     0.010355000000     0.310150000000     0.465815000000   
Cu     0.114645000000     0.189850000000     0.215815000000   
Cu     0.033495000000     0.261003333333     0.047540000000   
Cu     0.239645000000     0.023183333333     0.034185000000   
Cu     0.091505000000     0.238996666667     0.297540000000   
Cu     0.135355000000     0.143483333333     0.284185000000   
H      0.069275000000     0.145233333333     0.494600000000   
H      0.194700000000     0.054700000000     0.346100000000   
H      0.108900000000     0.098033333333     0.397100000000   
H      0.194275000000     0.311900000000     0.255400000000   
H      0.180300000000     0.111966666667     0.096100000000   
H      0.141100000000     0.235300000000     0.102900000000   
H      0.180725000000     0.188100000000     0.005400000000   
H      0.055300000000     0.278633333333     0.153900000000   
H      0.016100000000     0.068633333333     0.147100000000   
H      0.055725000000     0.021433333333     0.244600000000   
H      0.233900000000     0.264700000000     0.352900000000   
H      0.069700000000     0.221366666667     0.403900000000   
O      0.045575000000     0.261400000000     0.455225000000   
O      0.112900000000     0.285133333333     0.046100000000   
O      0.013400000000     0.028533333333     0.084125000000   
O      0.032025000000     0.313833333333     0.017575000000   
O      0.086025000000     0.279533333333     0.257025000000   
O      0.029825000000     0.291900000000     0.093410000000   
O      0.033850000000     0.100333333333     0.256600000000   
O      0.092975000000     0.186166666667     0.267575000000   
O      0.068125000000     0.129533333333     0.201250000000   
O      0.237900000000     0.118466666667     0.203900000000   
O      0.111600000000     0.138133333333     0.334125000000   
O      0.038975000000     0.220466666667     0.007025000000   
O      0.095175000000     0.208100000000     0.343410000000   
O      0.091150000000     0.066333333333     0.006600000000   
O      0.193125000000     0.296200000000     0.048750000000   
O      0.079425000000     0.238600000000     0.205225000000   
O      0.204425000000     0.071933333333     0.044775000000   
O      0.216150000000     0.233000000000     0.243400000000   
O      0.154825000000     0.125233333333     0.156590000000   
O      0.056875000000     0.037133333333     0.451250000000   
O      0.236600000000     0.304800000000     0.415875000000   
O      0.217975000000     0.019500000000     0.482425000000   
O      0.158850000000     0.267000000000     0.493400000000   
O      0.220175000000     0.041433333333     0.406590000000   
O      0.163975000000     0.053800000000     0.242975000000   
O      0.181875000000     0.203800000000     0.298750000000   
O      0.012100000000     0.214866666667     0.296100000000   
O      0.138400000000     0.195200000000     0.165875000000   
O      0.157025000000     0.147166666667     0.232425000000   
O      0.211025000000     0.112866666667     0.492975000000   
O      0.170575000000     0.094733333333     0.294775000000   
O      0.137100000000     0.048200000000     0.453900000000   
S      0.094440000000     0.063240000000     0.467555000000   
S      0.030560000000     0.103426666667     0.217555000000   
S      0.155560000000     0.270093333333     0.032445000000   
S      0.219440000000     0.229906666667     0.282445000000   
C      0.075775000000     0.273400000000     0.723650000000   
C      0.183100000000     0.143900000000     0.547650000000   
C      0.160350000000     0.217566666667     0.552000000000   
C      0.174225000000     0.059933333333     0.776350000000   
C      0.199375000000     0.315900000000     0.780400000000   
C      0.223475000000     0.287666666667     0.839250000000   
C      0.225000000000     0.002733333333     0.896200000000   
C      0.216475000000     0.327966666667     0.856000000000   
C      0.200175000000     0.028166666667     0.834950000000   
C      0.191900000000     0.022766666667     0.797650000000   
C      0.214650000000     0.282433333333     0.802000000000   
C      0.150000000000     0.163933333333     0.646200000000   
C      0.151525000000     0.212333333333     0.589250000000   
C      0.175625000000     0.184100000000     0.530400000000   
C      0.200775000000     0.106733333333     0.526350000000   
C      0.035350000000     0.050900000000     0.698000000000   
C      0.058100000000     0.310566666667     0.702350000000   
C      0.049825000000     0.305166666667     0.665050000000   
C      0.033525000000     0.005366666667     0.644000000000   
C      0.025000000000     0.330600000000     0.603800000000   
C      0.026525000000     0.045666666667     0.660750000000   
C      0.050625000000     0.017433333333     0.719600000000   
C      0.089650000000     0.115766666667     0.948000000000   
C      0.066900000000     0.189433333333     0.952350000000   
C      0.075175000000     0.194833333333     0.915050000000   
C      0.091475000000     0.161300000000     0.894000000000   
C      0.100000000000     0.169400000000     0.853800000000   
C      0.098475000000     0.121000000000     0.910750000000   
C      0.074375000000     0.149233333333     0.969600000000   
C      0.049225000000     0.226600000000     0.973650000000   
C      0.174825000000     0.138500000000     0.584950000000   
C      0.158525000000     0.172033333333     0.606000000000   
Cu     0.216505000000     0.072330000000     0.952460000000   
Cu     0.158495000000     0.094336666667     0.702460000000   
Cu     0.010355000000     0.310150000000     0.965815000000   
Cu     0.114645000000     0.189850000000     0.715815000000   
Cu     0.033495000000     0.261003333333     0.547540000000   
Cu     0.239645000000     0.023183333333     0.534185000000   
Cu     0.091505000000     0.238996666667     0.797540000000   
Cu     0.135355000000     0.143483333333     0.784185000000   
H      0.069275000000     0.145233333333     0.994600000000   
H      0.194700000000     0.054700000000     0.846100000000   
H      0.108900000000     0.098033333333     0.897100000000   
H      0.194275000000     0.311900000000     0.755400000000   
H      0.180300000000     0.111966666667     0.596100000000   
H      0.141100000000     0.235300000000     0.602900000000   
H      0.180725000000     0.188100000000     0.505400000000   
H      0.055300000000     0.278633333333     0.653900000000   
H      0.016100000000     0.068633333333     0.647100000000   
H      0.055725000000     0.021433333333     0.744600000000   
H      0.233900000000     0.264700000000     0.852900000000   
H      0.069700000000     0.221366666667     0.903900000000   
O      0.045575000000     0.261400000000     0.955225000000   
O      0.112900000000     0.285133333333     0.546100000000   
O      0.013400000000     0.028533333333     0.584125000000   
O      0.032025000000     0.313833333333     0.517575000000   
O      0.086025000000     0.279533333333     0.757025000000   
O      0.029825000000     0.291900000000     0.593410000000   
O      0.033850000000     0.100333333333     0.756600000000   
O      0.092975000000     0.186166666667     0.767575000000   
O      0.068125000000     0.129533333333     0.701250000000   
O      0.237900000000     0.118466666667     0.703900000000   
O      0.111600000000     0.138133333333     0.834125000000   
O      0.038975000000     0.220466666667     0.507025000000   
O      0.095175000000     0.208100000000     0.843410000000   
O      0.091150000000     0.066333333333     0.506600000000   
O      0.193125000000     0.296200000000     0.548750000000   
O      0.079425000000     0.238600000000     0.705225000000   
O      0.204425000000     0.071933333333     0.544775000000   
O      0.216150000000     0.233000000000     0.743400000000   
O      0.154825000000     0.125233333333     0.656590000000   
O      0.056875000000     0.037133333333     0.951250000000   
O      0.236600000000     0.304800000000     0.915875000000   
O      0.217975000000     0.019500000000     0.982425000000   
O      0.158850000000     0.267000000000     0.993400000000   
O      0.220175000000     0.041433333333     0.906590000000   
O      0.163975000000     0.053800000000     0.742975000000   
O      0.181875000000     0.203800000000     0.798750000000   
O      0.012100000000     0.214866666667     0.796100000000   
O      0.138400000000     0.195200000000     0.665875000000   
O      0.157025000000     0.147166666667     0.732425000000   
O      0.211025000000     0.112866666667     0.992975000000   
O      0.170575000000     0.094733333333     0.794775000000   
O      0.137100000000     0.048200000000     0.953900000000   
S      0.094440000000     0.063240000000     0.967555000000   
S      0.030560000000     0.103426666667     0.717555000000   
S      0.155560000000     0.270093333333     0.532445000000   
S      0.219440000000     0.229906666667     0.782445000000   
C      0.075775000000     0.606733333333     0.223650000000   
C      0.183100000000     0.477233333333     0.047650000000   
C      0.160350000000     0.550900000000     0.052000000000   
C      0.174225000000     0.393266666667     0.276350000000   
C      0.199375000000     0.649233333333     0.280400000000   
C      0.223475000000     0.621000000000     0.339250000000   
C      0.225000000000     0.336066666667     0.396200000000   
C      0.216475000000     0.661300000000     0.356000000000   
C      0.200175000000     0.361500000000     0.334950000000   
C      0.191900000000     0.356100000000     0.297650000000   
C      0.214650000000     0.615766666667     0.302000000000   
C      0.150000000000     0.497266666667     0.146200000000   
C      0.151525000000     0.545666666667     0.089250000000   
C      0.175625000000     0.517433333333     0.030400000000   
C      0.200775000000     0.440066666667     0.026350000000   
C      0.035350000000     0.384233333333     0.198000000000   
C      0.058100000000     0.643900000000     0.202350000000   
C      0.049825000000     0.638500000000     0.165050000000   
C      0.033525000000     0.338700000000     0.144000000000   
C      0.025000000000     0.663933333333     0.103800000000   
C      0.026525000000     0.379000000000     0.160750000000   
C      0.050625000000     0.350766666667     0.219600000000   
C      0.089650000000     0.449100000000     0.448000000000   
C      0.066900000000     0.522766666667     0.452350000000   
C      0.075175000000     0.528166666667     0.415050000000   
C      0.091475000000     0.494633333333     0.394000000000   
C      0.100000000000     0.502733333333     0.353800000000   
C      0.098475000000     0.454333333333     0.410750000000   
C      0.074375000000     0.482566666667     0.469600000000   
C      0.049225000000     0.559933333333     0.473650000000   
C      0.174825000000     0.471833333333     0.084950000000   
C      0.158525000000     0.505366666667     0.106000000000   
Cu     0.216505000000     0.405663333333     0.452460000000   
Cu     0.158495000000     0.427670000000     0.202460000000   
Cu     0.010355000000     0.643483333333     0.465815000000   
Cu     0.114645000000     0.523183333333     0.215815000000   
Cu     0.033495000000     0.594336666667     0.047540000000   
Cu     0.239645000000     0.356516666667     0.034185000000   
Cu     0.091505000000     0.572330000000     0.297540000000   
Cu     0.135355000000     0.476816666667     0.284185000000   
H      0.069275000000     0.478566666667     0.494600000000   
H      0.194700000000     0.388033333333     0.346100000000   
H      0.108900000000     0.431366666667     0.397100000000   
H      0.194275000000     0.645233333333     0.255400000000   
H      0.180300000000     0.445300000000     0.096100000000   
H      0.141100000000     0.568633333333     0.102900000000   
H      0.180725000000     0.521433333333     0.005400000000   
H      0.055300000000     0.611966666667     0.153900000000   
H      0.016100000000     0.401966666667     0.147100000000   
H      0.055725000000     0.354766666667     0.244600000000   
H      0.233900000000     0.598033333333     0.352900000000   
H      0.069700000000     0.554700000000     0.403900000000   
O      0.045575000000     0.594733333333     0.455225000000   
O      0.112900000000     0.618466666667     0.046100000000   
O      0.013400000000     0.361866666667     0.084125000000   
O      0.032025000000     0.647166666667     0.017575000000   
O      0.086025000000     0.612866666667     0.257025000000   
O      0.029825000000     0.625233333333     0.093410000000   
O      0.033850000000     0.433666666667     0.256600000000   
O      0.092975000000     0.519500000000     0.267575000000   
O      0.068125000000     0.462866666667     0.201250000000   
O      0.237900000000     0.451800000000     0.203900000000   
O      0.111600000000     0.471466666667     0.334125000000   
O      0.038975000000     0.553800000000     0.007025000000   
O      0.095175000000     0.541433333333     0.343410000000   
O      0.091150000000     0.399666666667     0.006600000000   
O      0.193125000000     0.629533333333     0.048750000000   
O      0.079425000000     0.571933333333     0.205225000000   
O      0.204425000000     0.405266666667     0.044775000000   
O      0.216150000000     0.566333333333     0.243400000000   
O      0.154825000000     0.458566666667     0.156590000000   
O      0.056875000000     0.370466666667     0.451250000000   
O      0.236600000000     0.638133333333     0.415875000000   
O      0.217975000000     0.352833333333     0.482425000000   
O      0.158850000000     0.600333333333     0.493400000000   
O      0.220175000000     0.374766666667     0.406590000000   
O      0.163975000000     0.387133333333     0.242975000000   
O      0.181875000000     0.537133333333     0.298750000000   
O      0.012100000000     0.548200000000     0.296100000000   
O      0.138400000000     0.528533333333     0.165875000000   
O      0.157025000000     0.480500000000     0.232425000000   
O      0.211025000000     0.446200000000     0.492975000000   
O      0.170575000000     0.428066666667     0.294775000000   
O      0.137100000000     0.381533333333     0.453900000000   
S      0.094440000000     0.396573333333     0.467555000000   
S      0.030560000000     0.436760000000     0.217555000000   
S      0.155560000000     0.603426666667     0.032445000000   
S      0.219440000000     0.563240000000     0.282445000000   
C      0.075775000000     0.606733333333     0.723650000000   
C      0.183100000000     0.477233333333     0.547650000000   
C      0.160350000000     0.550900000000     0.552000000000   
C      0.174225000000     0.393266666667     0.776350000000   
C      0.199375000000     0.649233333333     0.780400000000   
C      0.223475000000     0.621000000000     0.839250000000   
C      0.225000000000     0.336066666667     0.896200000000   
C      0.216475000000     0.661300000000     0.856000000000   
C      0.200175000000     0.361500000000     0.834950000000   
C      0.191900000000     0.356100000000     0.797650000000   
C      0.214650000000     0.615766666667     0.802000000000   
C      0.150000000000     0.497266666667     0.646200000000   
C      0.151525000000     0.545666666667     0.589250000000   
C      0.175625000000     0.517433333333     0.530400000000   
C      0.200775000000     0.440066666667     0.526350000000   
C      0.035350000000     0.384233333333     0.698000000000   
C      0.058100000000     0.643900000000     0.702350000000   
C      0.049825000000     0.638500000000     0.665050000000   
C      0.033525000000     0.338700000000     0.644000000000   
C      0.025000000000     0.663933333333     0.603800000000   
C      0.026525000000     0.379000000000     0.660750000000   
C      0.050625000000     0.350766666667     0.719600000000   
C      0.089650000000     0.449100000000     0.948000000000   
C      0.066900000000     0.522766666667     0.952350000000   
C      0.075175000000     0.528166666667     0.915050000000   
C      0.091475000000     0.494633333333     0.894000000000   
C      0.100000000000     0.502733333333     0.853800000000   
C      0.098475000000     0.454333333333     0.910750000000   
C      0.074375000000     0.482566666667     0.969600000000   
C      0.049225000000     0.559933333333     0.973650000000   
C      0.174825000000     0.471833333333     0.584950000000   
C      0.158525000000     0.505366666667     0.606000000000   
Cu     0.216505000000     0.405663333333     0.952460000000   
Cu     0.158495000000     0.427670000000     0.702460000000   
Cu     0.010355000000     0.643483333333     0.965815000000   
Cu     0.114645000000     0.523183333333     0.715815000000   
Cu     0.033495000000     0.594336666667     0.547540000000   
Cu     0.239645000000     0.356516666667     0.534185000000   
Cu     0.091505000000     0.572330000000     0.797540000000   
Cu     0.135355000000     0.476816666667     0.784185000000   
H      0.069275000000     0.478566666667     0.994600000000   
H      0.194700000000     0.388033333333     0.846100000000   
H      0.108900000000     0.431366666667     0.897100000000   
H      0.194275000000     0.645233333333     0.755400000000   
H      0.180300000000     0.445300000000     0.596100000000   
H      0.141100000000     0.568633333333     0.602900000000   
H      0.180725000000     0.521433333333     0.505400000000   
H      0.055300000000     0.611966666667     0.653900000000   
H      0.016100000000     0.401966666667     0.647100000000   
H      0.055725000000     0.354766666667     0.744600000000   
H      0.233900000000     0.598033333333     0.852900000000   
H      0.069700000000     0.554700000000     0.903900000000   
O      0.045575000000     0.594733333333     0.955225000000   
O      0.112900000000     0.618466666667     0.546100000000   
O      0.013400000000     0.361866666667     0.584125000000   
O      0.032025000000     0.647166666667     0.517575000000   
O      0.086025000000     0.612866666667     0.757025000000   
O      0.029825000000     0.625233333333     0.593410000000   
O      0.033850000000     0.433666666667     0.756600000000   
O      0.092975000000     0.519500000000     0.767575000000   
O      0.068125000000     0.462866666667     0.701250000000   
O      0.237900000000     0.451800000000     0.703900000000   
O      0.111600000000     0.471466666667     0.834125000000   
O      0.038975000000     0.553800000000     0.507025000000   
O      0.095175000000     0.541433333333     0.843410000000   
O      0.091150000000     0.399666666667     0.506600000000   
O      0.193125000000     0.629533333333     0.548750000000   
O      0.079425000000     0.571933333333     0.705225000000   
O      0.204425000000     0.405266666667     0.544775000000   
O      0.216150000000     0.566333333333     0.743400000000   
O      0.154825000000     0.458566666667     0.656590000000   
O      0.056875000000     0.370466666667     0.951250000000   
O      0.236600000000     0.638133333333     0.915875000000   
O      0.217975000000     0.352833333333     0.982425000000   
O      0.158850000000     0.600333333333     0.993400000000   
O      0.220175000000     0.374766666667     0.906590000000   
O      0.163975000000     0.387133333333     0.742975000000   
O      0.181875000000     0.537133333333     0.798750000000   
O      0.012100000000     0.548200000000     0.796100000000   
O      0.138400000000     0.528533333333     0.665875000000   
O      0.157025000000     0.480500000000     0.732425000000   
O      0.211025000000     0.446200000000     0.992975000000   
O      0.170575000000     0.428066666667     0.794775000000   
O      0.137100000000     0.381533333333     0.953900000000   
S      0.094440000000     0.396573333333     0.967555000000   
S      0.030560000000     0.436760000000     0.717555000000   
S      0.155560000000     0.603426666667     0.532445000000   
S      0.219440000000     0.563240000000     0.782445000000   
C      0.075775000000     0.940066666667     0.223650000000   
C      0.183100000000     0.810566666667     0.047650000000   
C      0.160350000000     0.884233333333     0.052000000000   
C      0.174225000000     0.726600000000     0.276350000000   
C      0.199375000000     0.982566666667     0.280400000000   
C      0.223475000000     0.954333333333     0.339250000000   
C      0.225000000000     0.669400000000     0.396200000000   
C      0.216475000000     0.994633333333     0.356000000000   
C      0.200175000000     0.694833333333     0.334950000000   
C      0.191900000000     0.689433333333     0.297650000000   
C      0.214650000000     0.949100000000     0.302000000000   
C      0.150000000000     0.830600000000     0.146200000000   
C      0.151525000000     0.879000000000     0.089250000000   
C      0.175625000000     0.850766666667     0.030400000000   
C      0.200775000000     0.773400000000     0.026350000000   
C      0.035350000000     0.717566666667     0.198000000000   
C      0.058100000000     0.977233333333     0.202350000000   
C      0.049825000000     0.971833333333     0.165050000000   
C      0.033525000000     0.672033333333     0.144000000000   
C      0.025000000000     0.997266666667     0.103800000000   
C      0.026525000000     0.712333333333     0.160750000000   
C      0.050625000000     0.684100000000     0.219600000000   
C      0.089650000000     0.782433333333     0.448000000000   
C      0.066900000000     0.856100000000     0.452350000000   
C      0.075175000000     0.861500000000     0.415050000000   
C      0.091475000000     0.827966666667     0.394000000000   
C      0.100000000000     0.836066666667     0.353800000000   
C      0.098475000000     0.787666666667     0.410750000000   
C      0.074375000000     0.815900000000     0.469600000000   
C      0.049225000000     0.893266666667     0.473650000000   
C      0.174825000000     0.805166666667     0.084950000000   
C      0.158525000000     0.838700000000     0.106000000000   
Cu     0.216505000000     0.738996666667     0.452460000000   
Cu     0.158495000000     0.761003333333     0.202460000000   
Cu     0.010355000000     0.976816666667     0.465815000000   
Cu     0.114645000000     0.856516666667     0.215815000000   
Cu     0.033495000000     0.927670000000     0.047540000000   
Cu     0.239645000000     0.689850000000     0.034185000000   
Cu     0.091505000000     0.905663333333     0.297540000000   
Cu     0.135355000000     0.810150000000     0.284185000000   
H      0.069275000000     0.811900000000     0.494600000000   
H      0.194700000000     0.721366666667     0.346100000000   
H      0.108900000000     0.764700000000     0.397100000000   
H      0.194275000000     0.978566666667     0.255400000000   
H      0.180300000000     0.778633333333     0.096100000000   
H      0.141100000000     0.901966666667     0.102900000000   
H      0.180725000000     0.854766666667     0.005400000000   
H      0.055300000000     0.945300000000     0.153900000000   
H      0.016100000000     0.735300000000     0.147100000000   
H      0.055725000000     0.688100000000     0.244600000000   
H      0.233900000000     0.931366666667     0.352900000000   
H      0.069700000000     0.888033333333     0.403900000000   
O      0.045575000000     0.928066666667     0.455225000000   
O      0.112900000000     0.951800000000     0.046100000000   
O      0.013400000000     0.695200000000     0.084125000000   
O      0.032025000000     0.980500000000     0.017575000000   
O      0.086025000000     0.946200000000     0.257025000000   
O      0.029825000000     0.958566666667     0.093410000000   
O      0.033850000000     0.767000000000     0.256600000000   
O      0.092975000000     0.852833333333     0.267575000000   
O      0.068125000000     0.796200000000     0.201250000000   
O      0.237900000000     0.785133333333     0.203900000000   
O      0.111600000000     0.804800000000     0.334125000000   
O      0.038975000000     0.887133333333     0.007025000000   
O      0.095175000000     0.874766666667     0.343410000000   
O      0.091150000000     0.733000000000     0.006600000000   
O      0.193125000000     0.962866666667     0.048750000000   
O      0.079425000000     0.905266666667     0.205225000000   
O      0.204425000000     0.738600000000     0.044775000000   
O      0.216150000000     0.899666666667     0.243400000000   
O      0.154825000000     0.791900000000     0.156590000000   
O      0.056875000000     0.703800000000     0.451250000000   
O      0.236600000000     0.971466666667     0.415875000000   
O      0.217975000000     0.686166666667     0.482425000000   
O      0.158850000000     0.933666666667     0.493400000000   
O      0.220175000000     0.708100000000     0.406590000000   
O      0.163975000000     0.720466666667     0.242975000000   
O      0.181875000000     0.870466666667     0.298750000000   
O      0.012100000000     0.881533333333     0.296100000000   
O      0.138400000000     0.861866666667     0.165875000000   
O      0.157025000000     0.813833333333     0.232425000000   
O      0.211025000000     0.779533333333     0.492975000000   
O      0.170575000000     0.761400000000     0.294775000000   
O      0.137100000000     0.714866666667     0.453900000000   
S      0.094440000000     0.729906666667     0.467555000000   
S      0.030560000000     0.770093333333     0.217555000000   
S      0.155560000000     0.936760000000     0.032445000000   
S      0.219440000000     0.896573333333     0.282445000000   
C      0.075775000000     0.940066666667     0.723650000000   
C      0.183100000000     0.810566666667     0.547650000000   
C      0.160350000000     0.884233333333     0.552000000000   
C      0.174225000000     0.726600000000     0.776350000000   
C      0.199375000000     0.982566666667     0.780400000000   
C      0.223475000000     0.954333333333     0.839250000000   
C      0.225000000000     0.669400000000     0.896200000000   
C      0.216475000000     0.994633333333     0.856000000000   
C      0.200175000000     0.694833333333     0.834950000000   
C      0.191900000000     0.689433333333     0.797650000000   
C      0.214650000000     0.949100000000     0.802000000000   
C      0.150000000000     0.830600000000     0.646200000000   
C      0.151525000000     0.879000000000     0.589250000000   
C      0.175625000000     0.850766666667     0.530400000000   
C      0.200775000000     0.773400000000     0.526350000000   
C      0.035350000000     0.717566666667     0.698000000000   
C      0.058100000000     0.977233333333     0.702350000000   
C      0.049825000000     0.971833333333     0.665050000000   
C      0.033525000000     0.672033333333     0.644000000000   
C      0.025000000000     0.997266666667     0.603800000000   
C      0.026525000000     0.712333333333     0.660750000000   
C      0.050625000000     0.684100000000     0.719600000000   
C      0.089650000000     0.782433333333     0.948000000000   
C      0.066900000000     0.856100000000     0.952350000000   
C      0.075175000000     0.861500000000     0.915050000000   
C      0.091475000000     0.827966666667     0.894000000000   
C      0.100000000000     0.836066666667     0.853800000000   
C      0.098475000000     0.787666666667     0.910750000000   
C      0.074375000000     0.815900000000     0.969600000000   
C      0.049225000000     0.893266666667     0.973650000000   
C      0.174825000000     0.805166666667     0.584950000000   
C      0.158525000000     0.838700000000     0.606000000000   