%BLOCK LATTICE_CART
ang    # angstrom units
  18.656900000000    0.000000000000     0.000000000000   
  0.000000000000     18.735900000000    0.000000000000   
 -0.727687127190     0.000000000000     9.404990539864   
%ENDBLOCK LATTICE_CART

%BLOCK POSITIONS_FRAC
O      0.161110000000     0.089455000000     0.130616666667   
O      0.086540000000     0.087115000000     0.201403333333   
O      0.092125000000     0.087510000000     0.122930000000   
O      0.151820000000     0.086730000000     0.208296666667   
C      0.076750000000     0.075145000000     0.159313333333   
C      0.048780000000     0.049190000000     0.156313333333   
C      0.028090000000     0.038065000000     0.194096666667   
H      0.031790000000     0.051805000000     0.227853333333   
C      0.208800000000     0.028425000000     0.224123333333   
H      0.196590000000     0.036415000000     0.255883333333   
C      0.481405000000     0.498805000000     0.225336666667   
H      0.483980000000     0.012945000000     0.258750000000   
C      0.002400000000     0.009360000000     0.188380000000   
H      0.175115000000     0.148630000000     0.035893333333   
H      0.174820000000     0.101365000000     0.286840000000   
C      0.167495000000     0.074355000000     0.171933333333   
C      0.195515000000     0.042735000000     0.179960000000   
C      0.212935000000     0.030440000000     0.139733333333   
H      0.202775000000     0.039605000000     0.105113333333   
C      0.043110000000     0.030075000000     0.113353333333   
H      0.058045000000     0.037380000000     0.083506666667   
C      0.238280000000     0.004380000000     0.228643333333   
H      0.247070000000     0.494605000000     0.263596666667   
C      0.243495000000     0.006540000000     0.144203333333   
C      0.104425000000     0.093345000000     0.016370000000   
H      0.117190000000     0.068410000000     0.030776666667   
H      0.076075000000     0.092460000000     0.026163333333   
C      0.103910000000     0.093470000000     0.292720000000   
H      0.075305000000     0.092840000000     0.277930000000   
H      0.116110000000     0.068605000000     0.280033333333   
O      0.338890000000     0.339455000000     0.202716666667   
O      0.413460000000     0.337115000000     0.131930000000   
O      0.407875000000     0.337510000000     0.210403333333   
O      0.348180000000     0.336730000000     0.125036666667   
C      0.423250000000     0.325145000000     0.174020000000   
C      0.451220000000     0.299190000000     0.177020000000   
C      0.471910000000     0.288065000000     0.139236666667   
H      0.468210000000     0.301805000000     0.105480000000   
C      0.291200000000     0.278425000000     0.109210000000   
H      0.303410000000     0.286415000000     0.077450000000   
C      0.018595000000     0.248805000000     0.107996666667   
H      0.016020000000     0.262945000000     0.074583333333   
C      0.497600000000     0.259360000000     0.144953333333   
H      0.324885000000     0.398630000000     0.297440000000   
H      0.325180000000     0.351365000000     0.046493333333   
C      0.332505000000     0.324355000000     0.161400000000   
C      0.304485000000     0.292735000000     0.153373333333   
C      0.287065000000     0.280440000000     0.193600000000   
H      0.297225000000     0.289605000000     0.228220000000   
C      0.456890000000     0.280075000000     0.219980000000   
H      0.441955000000     0.287380000000     0.249826666667   
C      0.261720000000     0.254380000000     0.104690000000   
H      0.252930000000     0.244605000000     0.069736666667   
C      0.256505000000     0.256540000000     0.189130000000   
C      0.395575000000     0.343345000000     0.316963333333   
H      0.382810000000     0.318410000000     0.302556666667   
H      0.423925000000     0.342460000000     0.307170000000   
C      0.396090000000     0.343470000000     0.040613333333   
H      0.424695000000     0.342840000000     0.055403333333   
H      0.383890000000     0.318605000000     0.053300000000   
O      0.338890000000     0.410545000000     0.202716666667   
O      0.413460000000     0.412885000000     0.131930000000   
O      0.407875000000     0.412490000000     0.210403333333   
O      0.348180000000     0.413270000000     0.125036666667   
C      0.423250000000     0.424855000000     0.174020000000   
C      0.451220000000     0.450810000000     0.177020000000   
C      0.471910000000     0.461935000000     0.139236666667   
H      0.468210000000     0.448195000000     0.105480000000   
C      0.291200000000     0.471575000000     0.109210000000   
H      0.303410000000     0.463585000000     0.077450000000   
C      0.018595000000     0.001195000000     0.107996666667   
H      0.016020000000     0.487055000000     0.074583333333   
C      0.497600000000     0.490640000000     0.144953333333   
H      0.324885000000     0.351370000000     0.297440000000   
H      0.325180000000     0.398635000000     0.046493333333   
C      0.332505000000     0.425645000000     0.161400000000   
C      0.304485000000     0.457265000000     0.153373333333   
C      0.287065000000     0.469560000000     0.193600000000   
H      0.297225000000     0.460395000000     0.228220000000   
C      0.456890000000     0.469925000000     0.219980000000   
H      0.441955000000     0.462620000000     0.249826666667   
C      0.261720000000     0.495620000000     0.104690000000   
H      0.252930000000     0.005395000000     0.069736666667   
C      0.256505000000     0.493460000000     0.189130000000   
C      0.395575000000     0.406655000000     0.316963333333   
H      0.382810000000     0.431590000000     0.302556666667   
H      0.423925000000     0.407540000000     0.307170000000   
C      0.396090000000     0.406530000000     0.040613333333   
H      0.424695000000     0.407160000000     0.055403333333   
H      0.383890000000     0.431395000000     0.053300000000   
O      0.161110000000     0.160545000000     0.130616666667   
O      0.086540000000     0.162885000000     0.201403333333   
O      0.092125000000     0.162490000000     0.122930000000   
O      0.151820000000     0.163270000000     0.208296666667   
C      0.076750000000     0.174855000000     0.159313333333   
C      0.048780000000     0.200810000000     0.156313333333   
C      0.028090000000     0.211935000000     0.194096666667   
H      0.031790000000     0.198195000000     0.227853333333   
C      0.208800000000     0.221575000000     0.224123333333   
H      0.196590000000     0.213585000000     0.255883333333   
C      0.481405000000     0.251195000000     0.225336666667   
H      0.483980000000     0.237055000000     0.258750000000   
C      0.002400000000     0.240640000000     0.188380000000   
H      0.175115000000     0.101370000000     0.035893333333   
H      0.174820000000     0.148635000000     0.286840000000   
C      0.167495000000     0.175645000000     0.171933333333   
C      0.195515000000     0.207265000000     0.179960000000   
C      0.212935000000     0.219560000000     0.139733333333   
H      0.202775000000     0.210395000000     0.105113333333   
C      0.043110000000     0.219925000000     0.113353333333   
H      0.058045000000     0.212620000000     0.083506666667   
C      0.238280000000     0.245620000000     0.228643333333   
H      0.247070000000     0.255395000000     0.263596666667   
C      0.243495000000     0.243460000000     0.144203333333   
C      0.104425000000     0.156655000000     0.016370000000   
H      0.117190000000     0.181590000000     0.030776666667   
H      0.076075000000     0.157540000000     0.026163333333   
C      0.103910000000     0.156530000000     0.292720000000   
H      0.075305000000     0.157160000000     0.277930000000   
H      0.116110000000     0.181395000000     0.280033333333   
Ni     0.118775000000     0.125000000000     0.206240000000   
Ni     0.127755000000     0.125000000000     0.116623333333   
N      0.122515000000     0.125000000000     0.273153333333   
N      0.123085000000     0.125000000000     0.039500000000   
C      0.159885000000     0.125000000000     0.021630000000   
C      0.159600000000     0.125000000000     0.298066666667   
Ni     0.381225000000     0.375000000000     0.127093333333   
Ni     0.372245000000     0.375000000000     0.216710000000   
N      0.377485000000     0.375000000000     0.060180000000   
N      0.376915000000     0.375000000000     0.293833333333   
C      0.340115000000     0.375000000000     0.311703333333   
C      0.340400000000     0.375000000000     0.035266666667   
O      0.161110000000     0.089455000000     0.463950000000   
O      0.086540000000     0.087115000000     0.534736666667   
O      0.092125000000     0.087510000000     0.456263333333   
O      0.151820000000     0.086730000000     0.541630000000   
C      0.076750000000     0.075145000000     0.492646666667   
C      0.048780000000     0.049190000000     0.489646666667   
C      0.028090000000     0.038065000000     0.527430000000   
H      0.031790000000     0.051805000000     0.561186666667   
C      0.208800000000     0.028425000000     0.557456666667   
H      0.196590000000     0.036415000000     0.589216666667   
C      0.481405000000     0.498805000000     0.558670000000   
H      0.483980000000     0.012945000000     0.592083333333   
C      0.002400000000     0.009360000000     0.521713333333   
H      0.175115000000     0.148630000000     0.369226666667   
H      0.174820000000     0.101365000000     0.620173333333   
C      0.167495000000     0.074355000000     0.505266666667   
C      0.195515000000     0.042735000000     0.513293333333   
C      0.212935000000     0.030440000000     0.473066666667   
H      0.202775000000     0.039605000000     0.438446666667   
C      0.043110000000     0.030075000000     0.446686666667   
H      0.058045000000     0.037380000000     0.416840000000   
C      0.238280000000     0.004380000000     0.561976666667   
H      0.247070000000     0.494605000000     0.596930000000   
C      0.243495000000     0.006540000000     0.477536666667   
C      0.104425000000     0.093345000000     0.349703333333   
H      0.117190000000     0.068410000000     0.364110000000   
H      0.076075000000     0.092460000000     0.359496666667   
C      0.103910000000     0.093470000000     0.626053333333   
H      0.075305000000     0.092840000000     0.611263333333   
H      0.116110000000     0.068605000000     0.613366666667   
O      0.338890000000     0.339455000000     0.536050000000   
O      0.413460000000     0.337115000000     0.465263333333   
O      0.407875000000     0.337510000000     0.543736666667   
O      0.348180000000     0.336730000000     0.458370000000   
C      0.423250000000     0.325145000000     0.507353333333   
C      0.451220000000     0.299190000000     0.510353333333   
C      0.471910000000     0.288065000000     0.472570000000   
H      0.468210000000     0.301805000000     0.438813333333   
C      0.291200000000     0.278425000000     0.442543333333   
H      0.303410000000     0.286415000000     0.410783333333   
C      0.018595000000     0.248805000000     0.441330000000   
H      0.016020000000     0.262945000000     0.407916666667   
C      0.497600000000     0.259360000000     0.478286666667   
H      0.324885000000     0.398630000000     0.630773333333   
H      0.325180000000     0.351365000000     0.379826666667   
C      0.332505000000     0.324355000000     0.494733333333   
C      0.304485000000     0.292735000000     0.486706666667   
C      0.287065000000     0.280440000000     0.526933333333   
H      0.297225000000     0.289605000000     0.561553333333   
C      0.456890000000     0.280075000000     0.553313333333   
H      0.441955000000     0.287380000000     0.583160000000   
C      0.261720000000     0.254380000000     0.438023333333   
H      0.252930000000     0.244605000000     0.403070000000   
C      0.256505000000     0.256540000000     0.522463333333   
C      0.395575000000     0.343345000000     0.650296666667   
H      0.382810000000     0.318410000000     0.635890000000   
H      0.423925000000     0.342460000000     0.640503333333   
C      0.396090000000     0.343470000000     0.373946666667   
H      0.424695000000     0.342840000000     0.388736666667   
H      0.383890000000     0.318605000000     0.386633333333   
O      0.338890000000     0.410545000000     0.536050000000   
O      0.413460000000     0.412885000000     0.465263333333   
O      0.407875000000     0.412490000000     0.543736666667   
O      0.348180000000     0.413270000000     0.458370000000   
C      0.423250000000     0.424855000000     0.507353333333   
C      0.451220000000     0.450810000000     0.510353333333   
C      0.471910000000     0.461935000000     0.472570000000   
H      0.468210000000     0.448195000000     0.438813333333   
C      0.291200000000     0.471575000000     0.442543333333   
H      0.303410000000     0.463585000000     0.410783333333   
C      0.018595000000     0.001195000000     0.441330000000   
H      0.016020000000     0.487055000000     0.407916666667   
C      0.497600000000     0.490640000000     0.478286666667   
H      0.324885000000     0.351370000000     0.630773333333   
H      0.325180000000     0.398635000000     0.379826666667   
C      0.332505000000     0.425645000000     0.494733333333   
C      0.304485000000     0.457265000000     0.486706666667   
C      0.287065000000     0.469560000000     0.526933333333   
H      0.297225000000     0.460395000000     0.561553333333   
C      0.456890000000     0.469925000000     0.553313333333   
H      0.441955000000     0.462620000000     0.583160000000   
C      0.261720000000     0.495620000000     0.438023333333   
H      0.252930000000     0.005395000000     0.403070000000   
C      0.256505000000     0.493460000000     0.522463333333   
C      0.395575000000     0.406655000000     0.650296666667   
H      0.382810000000     0.431590000000     0.635890000000   
H      0.423925000000     0.407540000000     0.640503333333   
C      0.396090000000     0.406530000000     0.373946666667   
H      0.424695000000     0.407160000000     0.388736666667   
H      0.383890000000     0.431395000000     0.386633333333   
O      0.161110000000     0.160545000000     0.463950000000   
O      0.086540000000     0.162885000000     0.534736666667   
O      0.092125000000     0.162490000000     0.456263333333   
O      0.151820000000     0.163270000000     0.541630000000   
C      0.076750000000     0.174855000000     0.492646666667   
C      0.048780000000     0.200810000000     0.489646666667   
C      0.028090000000     0.211935000000     0.527430000000   
H      0.031790000000     0.198195000000     0.561186666667   
C      0.208800000000     0.221575000000     0.557456666667   
H      0.196590000000     0.213585000000     0.589216666667   
C      0.481405000000     0.251195000000     0.558670000000   
H      0.483980000000     0.237055000000     0.592083333333   
C      0.002400000000     0.240640000000     0.521713333333   
H      0.175115000000     0.101370000000     0.369226666667   
H      0.174820000000     0.148635000000     0.620173333333   
C      0.167495000000     0.175645000000     0.505266666667   
C      0.195515000000     0.207265000000     0.513293333333   
C      0.212935000000     0.219560000000     0.473066666667   
H      0.202775000000     0.210395000000     0.438446666667   
C      0.043110000000     0.219925000000     0.446686666667   
H      0.058045000000     0.212620000000     0.416840000000   
C      0.238280000000     0.245620000000     0.561976666667   
H      0.247070000000     0.255395000000     0.596930000000   
C      0.243495000000     0.243460000000     0.477536666667   
C      0.104425000000     0.156655000000     0.349703333333   
H      0.117190000000     0.181590000000     0.364110000000   
H      0.076075000000     0.157540000000     0.359496666667   
C      0.103910000000     0.156530000000     0.626053333333   
H      0.075305000000     0.157160000000     0.611263333333   
H      0.116110000000     0.181395000000     0.613366666667   
Ni     0.118775000000     0.125000000000     0.539573333333   
Ni     0.127755000000     0.125000000000     0.449956666667   
N      0.122515000000     0.125000000000     0.606486666667   
N      0.123085000000     0.125000000000     0.372833333333   
C      0.159885000000     0.125000000000     0.354963333333   
C      0.159600000000     0.125000000000     0.631400000000   
Ni     0.381225000000     0.375000000000     0.460426666667   
Ni     0.372245000000     0.375000000000     0.550043333333   
N      0.377485000000     0.375000000000     0.393513333333   
N      0.376915000000     0.375000000000     0.627166666667   
C      0.340115000000     0.375000000000     0.645036666667   
C      0.340400000000     0.375000000000     0.368600000000   
O      0.161110000000     0.089455000000     0.797283333333   
O      0.086540000000     0.087115000000     0.868070000000   
O      0.092125000000     0.087510000000     0.789596666667   
O      0.151820000000     0.086730000000     0.874963333333   
C      0.076750000000     0.075145000000     0.825980000000   
C      0.048780000000     0.049190000000     0.822980000000   
C      0.028090000000     0.038065000000     0.860763333333   
H      0.031790000000     0.051805000000     0.894520000000   
C      0.208800000000     0.028425000000     0.890790000000   
H      0.196590000000     0.036415000000     0.922550000000   
C      0.481405000000     0.498805000000     0.892003333333   
H      0.483980000000     0.012945000000     0.925416666667   
C      0.002400000000     0.009360000000     0.855046666667   
H      0.175115000000     0.148630000000     0.702560000000   
H      0.174820000000     0.101365000000     0.953506666667   
C      0.167495000000     0.074355000000     0.838600000000   
C      0.195515000000     0.042735000000     0.846626666667   
C      0.212935000000     0.030440000000     0.806400000000   
H      0.202775000000     0.039605000000     0.771780000000   
C      0.043110000000     0.030075000000     0.780020000000   
H      0.058045000000     0.037380000000     0.750173333333   
C      0.238280000000     0.004380000000     0.895310000000   
H      0.247070000000     0.494605000000     0.930263333333   
C      0.243495000000     0.006540000000     0.810870000000   
C      0.104425000000     0.093345000000     0.683036666667   
H      0.117190000000     0.068410000000     0.697443333333   
H      0.076075000000     0.092460000000     0.692830000000   
C      0.103910000000     0.093470000000     0.959386666667   
H      0.075305000000     0.092840000000     0.944596666667   
H      0.116110000000     0.068605000000     0.946700000000   
O      0.338890000000     0.339455000000     0.869383333333   
O      0.413460000000     0.337115000000     0.798596666667   
O      0.407875000000     0.337510000000     0.877070000000   
O      0.348180000000     0.336730000000     0.791703333333   
C      0.423250000000     0.325145000000     0.840686666667   
C      0.451220000000     0.299190000000     0.843686666667   
C      0.471910000000     0.288065000000     0.805903333333   
H      0.468210000000     0.301805000000     0.772146666667   
C      0.291200000000     0.278425000000     0.775876666667   
H      0.303410000000     0.286415000000     0.744116666667   
C      0.018595000000     0.248805000000     0.774663333333   
H      0.016020000000     0.262945000000     0.741250000000   
C      0.497600000000     0.259360000000     0.811620000000   
H      0.324885000000     0.398630000000     0.964106666667   
H      0.325180000000     0.351365000000     0.713160000000   
C      0.332505000000     0.324355000000     0.828066666667   
C      0.304485000000     0.292735000000     0.820040000000   
C      0.287065000000     0.280440000000     0.860266666667   
H      0.297225000000     0.289605000000     0.894886666667   
C      0.456890000000     0.280075000000     0.886646666667   
H      0.441955000000     0.287380000000     0.916493333333   
C      0.261720000000     0.254380000000     0.771356666667   
H      0.252930000000     0.244605000000     0.736403333333   
C      0.256505000000     0.256540000000     0.855796666667   
C      0.395575000000     0.343345000000     0.983630000000   
H      0.382810000000     0.318410000000     0.969223333333   
H      0.423925000000     0.342460000000     0.973836666667   
C      0.396090000000     0.343470000000     0.707280000000   
H      0.424695000000     0.342840000000     0.722070000000   
H      0.383890000000     0.318605000000     0.719966666667   
O      0.338890000000     0.410545000000     0.869383333333   
O      0.413460000000     0.412885000000     0.798596666667   
O      0.407875000000     0.412490000000     0.877070000000   
O      0.348180000000     0.413270000000     0.791703333333   
C      0.423250000000     0.424855000000     0.840686666667   
C      0.451220000000     0.450810000000     0.843686666667   
C      0.471910000000     0.461935000000     0.805903333333   
H      0.468210000000     0.448195000000     0.772146666667   
C      0.291200000000     0.471575000000     0.775876666667   
H      0.303410000000     0.463585000000     0.744116666667   
C      0.018595000000     0.001195000000     0.774663333333   
H      0.016020000000     0.487055000000     0.741250000000   
C      0.497600000000     0.490640000000     0.811620000000   
H      0.324885000000     0.351370000000     0.964106666667   
H      0.325180000000     0.398635000000     0.713160000000   
C      0.332505000000     0.425645000000     0.828066666667   
C      0.304485000000     0.457265000000     0.820040000000   
C      0.287065000000     0.469560000000     0.860266666667   
H      0.297225000000     0.460395000000     0.894886666667   
C      0.456890000000     0.469925000000     0.886646666667   
H      0.441955000000     0.462620000000     0.916493333333   
C      0.261720000000     0.495620000000     0.771356666667   
H      0.252930000000     0.005395000000     0.736403333333   
C      0.256505000000     0.493460000000     0.855796666667   
C      0.395575000000     0.406655000000     0.983630000000   
H      0.382810000000     0.431590000000     0.969223333333   
H      0.423925000000     0.407540000000     0.973836666667   
C      0.396090000000     0.406530000000     0.707280000000   
H      0.424695000000     0.407160000000     0.722070000000   
H      0.383890000000     0.431395000000     0.719966666667   
O      0.161110000000     0.160545000000     0.797283333333   
O      0.086540000000     0.162885000000     0.868070000000   
O      0.092125000000     0.162490000000     0.789596666667   
O      0.151820000000     0.163270000000     0.874963333333   
C      0.076750000000     0.174855000000     0.825980000000   
C      0.048780000000     0.200810000000     0.822980000000   
C      0.028090000000     0.211935000000     0.860763333333   
H      0.031790000000     0.198195000000     0.894520000000   
C      0.208800000000     0.221575000000     0.890790000000   
H      0.196590000000     0.213585000000     0.922550000000   
C      0.481405000000     0.251195000000     0.892003333333   
H      0.483980000000     0.237055000000     0.925416666667   
C      0.002400000000     0.240640000000     0.855046666667   
H      0.175115000000     0.101370000000     0.702560000000   
H      0.174820000000     0.148635000000     0.953506666667   
C      0.167495000000     0.175645000000     0.838600000000   
C      0.195515000000     0.207265000000     0.846626666667   
C      0.212935000000     0.219560000000     0.806400000000   
H      0.202775000000     0.210395000000     0.771780000000   
C      0.043110000000     0.219925000000     0.780020000000   
H      0.058045000000     0.212620000000     0.750173333333   
C      0.238280000000     0.245620000000     0.895310000000   
H      0.247070000000     0.255395000000     0.930263333333   
C      0.243495000000     0.243460000000     0.810870000000   
C      0.104425000000     0.156655000000     0.683036666667   
H      0.117190000000     0.181590000000     0.697443333333   
H      0.076075000000     0.157540000000     0.692830000000   
C      0.103910000000     0.156530000000     0.959386666667   
H      0.075305000000     0.157160000000     0.944596666667   
H      0.116110000000     0.181395000000     0.946700000000   
Ni     0.118775000000     0.125000000000     0.872906666667   
Ni     0.127755000000     0.125000000000     0.783290000000   
N      0.122515000000     0.125000000000     0.939820000000   
N      0.123085000000     0.125000000000     0.706166666667   
C      0.159885000000     0.125000000000     0.688296666667   
C      0.159600000000     0.125000000000     0.964733333333   
Ni     0.381225000000     0.375000000000     0.793760000000   
Ni     0.372245000000     0.375000000000     0.883376666667   
N      0.377485000000     0.375000000000     0.726846666667   
N      0.376915000000     0.375000000000     0.960500000000   
C      0.340115000000     0.375000000000     0.978370000000   
C      0.340400000000     0.375000000000     0.701933333333   
O      0.161110000000     0.589455000000     0.130616666667   
O      0.086540000000     0.587115000000     0.201403333333   
O      0.092125000000     0.587510000000     0.122930000000   
O      0.151820000000     0.586730000000     0.208296666667   
C      0.076750000000     0.575145000000     0.159313333333   
C      0.048780000000     0.549190000000     0.156313333333   
C      0.028090000000     0.538065000000     0.194096666667   
H      0.031790000000     0.551805000000     0.227853333333   
C      0.208800000000     0.528425000000     0.224123333333   
H      0.196590000000     0.536415000000     0.255883333333   
C      0.481405000000     0.998805000000     0.225336666667   
H      0.483980000000     0.512945000000     0.258750000000   
C      0.002400000000     0.509360000000     0.188380000000   
H      0.175115000000     0.648630000000     0.035893333333   
H      0.174820000000     0.601365000000     0.286840000000   
C      0.167495000000     0.574355000000     0.171933333333   
C      0.195515000000     0.542735000000     0.179960000000   
C      0.212935000000     0.530440000000     0.139733333333   
H      0.202775000000     0.539605000000     0.105113333333   
C      0.043110000000     0.530075000000     0.113353333333   
H      0.058045000000     0.537380000000     0.083506666667   
C      0.238280000000     0.504380000000     0.228643333333   
H      0.247070000000     0.994605000000     0.263596666667   
C      0.243495000000     0.506540000000     0.144203333333   
C      0.104425000000     0.593345000000     0.016370000000   
H      0.117190000000     0.568410000000     0.030776666667   
H      0.076075000000     0.592460000000     0.026163333333   
C      0.103910000000     0.593470000000     0.292720000000   
H      0.075305000000     0.592840000000     0.277930000000   
H      0.116110000000     0.568605000000     0.280033333333   
O      0.338890000000     0.839455000000     0.202716666667   
O      0.413460000000     0.837115000000     0.131930000000   
O      0.407875000000     0.837510000000     0.210403333333   
O      0.348180000000     0.836730000000     0.125036666667   
C      0.423250000000     0.825145000000     0.174020000000   
C      0.451220000000     0.799190000000     0.177020000000   
C      0.471910000000     0.788065000000     0.139236666667   
H      0.468210000000     0.801805000000     0.105480000000   
C      0.291200000000     0.778425000000     0.109210000000   
H      0.303410000000     0.786415000000     0.077450000000   
C      0.018595000000     0.748805000000     0.107996666667   
H      0.016020000000     0.762945000000     0.074583333333   
C      0.497600000000     0.759360000000     0.144953333333   
H      0.324885000000     0.898630000000     0.297440000000   
H      0.325180000000     0.851365000000     0.046493333333   
C      0.332505000000     0.824355000000     0.161400000000   
C      0.304485000000     0.792735000000     0.153373333333   
C      0.287065000000     0.780440000000     0.193600000000   
H      0.297225000000     0.789605000000     0.228220000000   
C      0.456890000000     0.780075000000     0.219980000000   
H      0.441955000000     0.787380000000     0.249826666667   
C      0.261720000000     0.754380000000     0.104690000000   
H      0.252930000000     0.744605000000     0.069736666667   
C      0.256505000000     0.756540000000     0.189130000000   
C      0.395575000000     0.843345000000     0.316963333333   
H      0.382810000000     0.818410000000     0.302556666667   
H      0.423925000000     0.842460000000     0.307170000000   
C      0.396090000000     0.843470000000     0.040613333333   
H      0.424695000000     0.842840000000     0.055403333333   
H      0.383890000000     0.818605000000     0.053300000000   
O      0.338890000000     0.910545000000     0.202716666667   
O      0.413460000000     0.912885000000     0.131930000000   
O      0.407875000000     0.912490000000     0.210403333333   
O      0.348180000000     0.913270000000     0.125036666667   
C      0.423250000000     0.924855000000     0.174020000000   
C      0.451220000000     0.950810000000     0.177020000000   
C      0.471910000000     0.961935000000     0.139236666667   
H      0.468210000000     0.948195000000     0.105480000000   
C      0.291200000000     0.971575000000     0.109210000000   
H      0.303410000000     0.963585000000     0.077450000000   
C      0.018595000000     0.501195000000     0.107996666667   
H      0.016020000000     0.987055000000     0.074583333333   
C      0.497600000000     0.990640000000     0.144953333333   
H      0.324885000000     0.851370000000     0.297440000000   
H      0.325180000000     0.898635000000     0.046493333333   
C      0.332505000000     0.925645000000     0.161400000000   