%BLOCK LATTICE_CART
ang    # angstrom units
  12.315600000000    0.000000000000     0.000000000000   
  0.000000000000     15.511300000000    0.000000000000   
  0.000000000000     0.000000000000     18.952100000000  
%ENDBLOCK LATTICE_CART

%BLOCK POSITIONS_FRAC
C      0.169033333333     0.332480000000     0.468935000000   
C      0.009986666667     0.352030000000     0.485710000000   
C      0.315130000000     0.380415000000     0.480140000000   
C      0.032486666667     0.391885000000     0.263890000000   
C      0.312533333333     0.414295000000     0.003185000000   
C      0.002366666667     0.417520000000     0.031065000000   
C      0.010373333333     0.423275000000     0.383820000000   
C      0.020353333333     0.289420000000     0.362920000000   
C      0.045516666667     0.460785000000     0.345335000000   
C      0.333026666667     0.248870000000     0.372545000000   
C      0.008536666667     0.210120000000     0.356770000000   
C      0.212570000000     0.126490000000     0.202140000000   
C      0.322960000000     0.173275000000     0.366180000000   
C      0.194616666667     0.499150000000     0.396685000000   
C      0.212183333333     0.460785000000     0.404665000000   
C      0.287816666667     0.210785000000     0.404665000000   
C      0.177040000000     0.423275000000     0.366180000000   
C      0.158130000000     0.460120000000     0.356770000000   
C      0.166973333333     0.498870000000     0.372545000000   
C      0.146313333333     0.039420000000     0.362920000000   
C      0.212183333333     0.289215000000     0.154665000000   
C      0.134180000000     0.141885000000     0.263890000000   
C      0.156680000000     0.147970000000     0.235710000000   
C      0.184870000000     0.119585000000     0.230140000000   
C      0.032486666667     0.358115000000     0.013890000000   
C      0.009986666667     0.397970000000     0.235710000000   
C      0.020353333333     0.460580000000     0.112920000000   
C      0.333026666667     0.001130000000     0.122545000000   
C      0.177040000000     0.326725000000     0.116180000000   
C      0.212570000000     0.123510000000     0.452140000000   
C      0.158130000000     0.289880000000     0.106770000000   
C      0.166973333333     0.251130000000     0.122545000000   
C      0.146313333333     0.210580000000     0.112920000000   
C      0.134180000000     0.108115000000     0.013890000000   
C      0.156680000000     0.102030000000     0.485710000000   
C      0.184870000000     0.130415000000     0.480140000000   
C      0.300846666667     0.141885000000     0.486110000000   
C      0.187466666667     0.164295000000     0.003185000000   
C      0.164300000000     0.167520000000     0.031065000000   
C      0.287430000000     0.376490000000     0.202140000000   
C      0.312980000000     0.039420000000     0.387080000000   
C      0.324796666667     0.460120000000     0.393230000000   
C      0.323346666667     0.147970000000     0.014290000000   
C      0.002366666667     0.332480000000     0.281065000000   
C      0.287430000000     0.373510000000     0.452140000000   
C      0.312533333333     0.335705000000     0.253185000000   
C      0.305383333333     0.000850000000     0.146685000000   
C      0.287816666667     0.039215000000     0.154665000000   
C      0.315130000000     0.369585000000     0.230140000000   
C      0.322960000000     0.076725000000     0.116180000000   
C      0.330966666667     0.082480000000     0.468935000000   
C      0.008536666667     0.039880000000     0.106770000000   
C      0.000306666667     0.498870000000     0.377455000000   
C      0.187466666667     0.085705000000     0.253185000000   
C      0.305383333333     0.249150000000     0.396685000000   
C      0.330966666667     0.167520000000     0.218935000000   
C      0.018203333333     0.130415000000     0.269860000000   
C      0.176653333333     0.352030000000     0.264290000000   
C      0.020800000000     0.164295000000     0.246815000000   
C      0.164300000000     0.082480000000     0.281065000000   
C      0.199153333333     0.358115000000     0.236110000000   
C      0.187020000000     0.460580000000     0.137080000000   
C      0.166360000000     0.001130000000     0.127455000000   
C      0.175203333333     0.039880000000     0.143230000000   
C      0.120763333333     0.376490000000     0.047860000000   
C      0.156293333333     0.076725000000     0.133820000000   
C      0.138716666667     0.249150000000     0.353315000000   
C      0.121150000000     0.210785000000     0.345335000000   
C      0.121150000000     0.039215000000     0.095335000000   
C      0.156293333333     0.173275000000     0.383820000000   
C      0.175203333333     0.210120000000     0.393230000000   
C      0.166360000000     0.248870000000     0.377455000000   
C      0.187020000000     0.289420000000     0.387080000000   
C      0.138716666667     0.000850000000     0.103315000000   
C      0.199153333333     0.391885000000     0.486110000000   
C      0.176653333333     0.397970000000     0.014290000000   
C      0.148463333333     0.369585000000     0.019860000000   
C      0.120763333333     0.373510000000     0.297860000000   
C      0.145866666667     0.335705000000     0.496815000000   
C      0.323346666667     0.102030000000     0.264290000000   
C      0.148463333333     0.380415000000     0.269860000000   
C      0.194616666667     0.250850000000     0.146685000000   
C      0.045903333333     0.123510000000     0.297860000000   
C      0.020800000000     0.085705000000     0.496815000000   
C      0.312980000000     0.210580000000     0.137080000000   
C      0.000306666667     0.251130000000     0.127455000000   
C      0.324796666667     0.289880000000     0.143230000000   
C      0.027950000000     0.250850000000     0.103315000000   
C      0.027950000000     0.499150000000     0.353315000000   
C      0.018203333333     0.119585000000     0.019860000000   
C      0.300846666667     0.108115000000     0.236110000000   
C      0.045903333333     0.126490000000     0.047860000000   
C      0.145866666667     0.414295000000     0.246815000000   
C      0.010373333333     0.326725000000     0.133820000000   
C      0.169033333333     0.417520000000     0.218935000000   
C      0.045516666667     0.289215000000     0.095335000000   
Cd     0.062733333333     0.391995000000     0.091005000000   
Cd     0.062733333333     0.358005000000     0.341005000000   
Cd     0.229400000000     0.358005000000     0.408995000000   
Cd     0.270600000000     0.141995000000     0.158995000000   
Cd     0.270600000000     0.108005000000     0.408995000000   
Cd     0.103933333333     0.108005000000     0.341005000000   
Cd     0.229400000000     0.391995000000     0.158995000000   
Cd     0.103933333333     0.141995000000     0.091005000000   
H      0.281800000000     0.161150000000     0.483150000000   
H      0.298466666667     0.274700000000     0.407600000000   
H      0.038466666667     0.064750000000     0.000200000000   
H      0.201533333333     0.225300000000     0.157600000000   
H      0.131800000000     0.475300000000     0.092400000000   
H      0.051533333333     0.411150000000     0.266850000000   
H      0.102400000000     0.038600000000     0.078950000000   
H      0.000633333333     0.059500000000     0.453450000000   
H      0.269066666667     0.211400000000     0.421050000000   
H      0.332700000000     0.309500000000     0.296550000000   
H      0.329100000000     0.147450000000     0.355300000000   
H      0.294866666667     0.314750000000     0.249800000000   
H      0.193600000000     0.041250000000     0.159950000000   
H      0.166033333333     0.440500000000     0.203450000000   
H      0.218200000000     0.338850000000     0.233150000000   
H      0.026933333333     0.208750000000     0.340050000000   
H      0.180300000000     0.329000000000     0.279550000000   
H      0.013633333333     0.421000000000     0.220450000000   
H      0.128200000000     0.435250000000     0.250200000000   
H      0.319700000000     0.171000000000     0.029550000000   
H      0.162433333333     0.102550000000     0.144700000000   
H      0.026933333333     0.041250000000     0.090050000000   
H      0.170900000000     0.352550000000     0.105300000000   
H      0.139733333333     0.458750000000     0.340050000000   
H      0.115133333333     0.161150000000     0.266850000000   
H      0.153033333333     0.171000000000     0.220450000000   
H      0.205133333333     0.064750000000     0.249800000000   
H      0.167300000000     0.059500000000     0.296550000000   
H      0.230933333333     0.288600000000     0.171050000000   
H      0.193600000000     0.208750000000     0.409950000000   
H      0.034866666667     0.024700000000     0.342400000000   
H      0.162433333333     0.147450000000     0.394700000000   
H      0.102400000000     0.211400000000     0.328950000000   
H      0.034866666667     0.225300000000     0.092400000000   
H      0.064266666667     0.288600000000     0.078950000000   
H      0.004233333333     0.352550000000     0.144700000000   
H      0.306400000000     0.291250000000     0.159950000000   
H      0.281800000000     0.088850000000     0.233150000000   
H      0.319700000000     0.079000000000     0.279550000000   
H      0.038466666667     0.185250000000     0.250200000000   
H      0.000633333333     0.190500000000     0.203450000000   
H      0.131800000000     0.274700000000     0.342400000000   
H      0.170900000000     0.397450000000     0.355300000000   
H      0.230933333333     0.461400000000     0.421050000000   
H      0.201533333333     0.024700000000     0.407600000000   
H      0.218200000000     0.411150000000     0.483150000000   
H      0.139733333333     0.291250000000     0.090050000000   
H      0.115133333333     0.088850000000     0.016850000000   
H      0.153033333333     0.079000000000     0.470450000000   
H      0.205133333333     0.185250000000     0.499800000000   
H      0.167300000000     0.190500000000     0.046550000000   
H      0.306400000000     0.458750000000     0.409950000000   
H      0.166033333333     0.309500000000     0.453450000000   
H      0.298466666667     0.475300000000     0.157600000000   
H      0.128200000000     0.314750000000     0.000200000000   
H      0.329100000000     0.102550000000     0.105300000000   
H      0.051533333333     0.338850000000     0.016850000000   
H      0.013633333333     0.329000000000     0.470450000000   
H      0.294866666667     0.435250000000     0.499800000000   
H      0.332700000000     0.440500000000     0.046550000000   
H      0.004233333333     0.397450000000     0.394700000000   
H      0.064266666667     0.461400000000     0.328950000000   
H      0.180300000000     0.421000000000     0.029550000000   
H      0.269066666667     0.038600000000     0.171050000000   
N      0.195663333333     0.360230000000     0.462625000000   
N      0.195663333333     0.389770000000     0.212625000000   
N      0.129933333333     0.077040000000     0.110095000000   
N      0.129933333333     0.172960000000     0.360095000000   
N      0.028996666667     0.360230000000     0.287375000000   
N      0.036733333333     0.422960000000     0.360095000000   
N      0.304336666667     0.110230000000     0.462625000000   
N      0.304336666667     0.139770000000     0.212625000000   
N      0.036733333333     0.327040000000     0.110095000000   
N      0.296600000000     0.172960000000     0.389905000000   
N      0.137670000000     0.110230000000     0.287375000000   
N      0.203400000000     0.422960000000     0.389905000000   
N      0.028996666667     0.389770000000     0.037375000000   
N      0.296600000000     0.077040000000     0.139905000000   
N      0.203400000000     0.327040000000     0.139905000000   
N      0.137670000000     0.139770000000     0.037375000000   
O      0.283916666667     0.035280000000     0.402995000000   
O      0.326413333333     0.074990000000     0.379420000000   
O      0.103090000000     0.405425000000     0.308540000000   
O      0.269756666667     0.405425000000     0.441460000000   
O      0.173586666667     0.425010000000     0.129420000000   
O      0.216083333333     0.285280000000     0.402995000000   
O      0.173586666667     0.324990000000     0.379420000000   
O      0.115023333333     0.414315000000     0.058230000000   
O      0.103090000000     0.344575000000     0.058540000000   
O      0.283916666667     0.214720000000     0.152995000000   
O      0.326413333333     0.175010000000     0.129420000000   
O      0.051643333333     0.085685000000     0.308230000000   
O      0.063576666667     0.155425000000     0.308540000000   
O      0.117250000000     0.035280000000     0.347005000000   
O      0.159746666667     0.074990000000     0.370580000000   
O      0.218310000000     0.164315000000     0.191770000000   
O      0.230243333333     0.094575000000     0.191460000000   
O      0.049416666667     0.464720000000     0.097005000000   
O      0.006920000000     0.425010000000     0.120580000000   
O      0.281690000000     0.335685000000     0.441770000000   
O      0.051643333333     0.164315000000     0.058230000000   
O      0.117250000000     0.214720000000     0.097005000000   
O      0.159746666667     0.175010000000     0.120580000000   
O      0.218310000000     0.085685000000     0.441770000000   
O      0.230243333333     0.155425000000     0.441460000000   
O      0.049416666667     0.285280000000     0.347005000000   
O      0.006920000000     0.324990000000     0.370580000000   
O      0.281690000000     0.414315000000     0.191770000000   
O      0.269756666667     0.344575000000     0.191460000000   
O      0.216083333333     0.464720000000     0.152995000000   
O      0.115023333333     0.335685000000     0.308230000000   
O      0.063576666667     0.094575000000     0.058540000000   
C      0.169033333333     0.332480000000     0.968935000000   
C      0.009986666667     0.352030000000     0.985710000000   
C      0.315130000000     0.380415000000     0.980140000000   
C      0.032486666667     0.391885000000     0.763890000000   
C      0.312533333333     0.414295000000     0.503185000000   
C      0.002366666667     0.417520000000     0.531065000000   
C      0.010373333333     0.423275000000     0.883820000000   
C      0.020353333333     0.289420000000     0.862920000000   
C      0.045516666667     0.460785000000     0.845335000000   
C      0.333026666667     0.248870000000     0.872545000000   
C      0.008536666667     0.210120000000     0.856770000000   
C      0.212570000000     0.126490000000     0.702140000000   
C      0.322960000000     0.173275000000     0.866180000000   
C      0.194616666667     0.499150000000     0.896685000000   
C      0.212183333333     0.460785000000     0.904665000000   
C      0.287816666667     0.210785000000     0.904665000000   
C      0.177040000000     0.423275000000     0.866180000000   
C      0.158130000000     0.460120000000     0.856770000000   
C      0.166973333333     0.498870000000     0.872545000000   
C      0.146313333333     0.039420000000     0.862920000000   
C      0.212183333333     0.289215000000     0.654665000000   
C      0.134180000000     0.141885000000     0.763890000000   
C      0.156680000000     0.147970000000     0.735710000000   
C      0.184870000000     0.119585000000     0.730140000000   
C      0.032486666667     0.358115000000     0.513890000000   
C      0.009986666667     0.397970000000     0.735710000000   
C      0.020353333333     0.460580000000     0.612920000000   
C      0.333026666667     0.001130000000     0.622545000000   
C      0.177040000000     0.326725000000     0.616180000000   
C      0.212570000000     0.123510000000     0.952140000000   
C      0.158130000000     0.289880000000     0.606770000000   
C      0.166973333333     0.251130000000     0.622545000000   
C      0.146313333333     0.210580000000     0.612920000000   
C      0.134180000000     0.108115000000     0.513890000000   
C      0.156680000000     0.102030000000     0.985710000000   
C      0.184870000000     0.130415000000     0.980140000000   
C      0.300846666667     0.141885000000     0.986110000000   
C      0.187466666667     0.164295000000     0.503185000000   
C      0.164300000000     0.167520000000     0.531065000000   
C      0.287430000000     0.376490000000     0.702140000000   
C      0.312980000000     0.039420000000     0.887080000000   
C      0.324796666667     0.460120000000     0.893230000000   
C      0.323346666667     0.147970000000     0.514290000000   
C      0.002366666667     0.332480000000     0.781065000000   
C      0.287430000000     0.373510000000     0.952140000000   
C      0.312533333333     0.335705000000     0.753185000000   
C      0.305383333333     0.000850000000     0.646685000000   
C      0.287816666667     0.039215000000     0.654665000000   
C      0.315130000000     0.369585000000     0.730140000000   
C      0.322960000000     0.076725000000     0.616180000000   
C      0.330966666667     0.082480000000     0.968935000000   
C      0.008536666667     0.039880000000     0.606770000000   
C      0.000306666667     0.498870000000     0.877455000000   
C      0.187466666667     0.085705000000     0.753185000000   
C      0.305383333333     0.249150000000     0.896685000000   
C      0.330966666667     0.167520000000     0.718935000000   
C      0.018203333333     0.130415000000     0.769860000000   
C      0.176653333333     0.352030000000     0.764290000000   
C      0.020800000000     0.164295000000     0.746815000000   
C      0.164300000000     0.082480000000     0.781065000000   
C      0.199153333333     0.358115000000     0.736110000000   
C      0.187020000000     0.460580000000     0.637080000000   
C      0.166360000000     0.001130000000     0.627455000000   
C      0.175203333333     0.039880000000     0.643230000000   
C      0.120763333333     0.376490000000     0.547860000000   
C      0.156293333333     0.076725000000     0.633820000000   
C      0.138716666667     0.249150000000     0.853315000000   
C      0.121150000000     0.210785000000     0.845335000000   
C      0.121150000000     0.039215000000     0.595335000000   
C      0.156293333333     0.173275000000     0.883820000000   
C      0.175203333333     0.210120000000     0.893230000000   
C      0.166360000000     0.248870000000     0.877455000000   
C      0.187020000000     0.289420000000     0.887080000000   
C      0.138716666667     0.000850000000     0.603315000000   
C      0.199153333333     0.391885000000     0.986110000000   
C      0.176653333333     0.397970000000     0.514290000000   
C      0.148463333333     0.369585000000     0.519860000000   
C      0.120763333333     0.373510000000     0.797860000000   
C      0.145866666667     0.335705000000     0.996815000000   
C      0.323346666667     0.102030000000     0.764290000000   
C      0.148463333333     0.380415000000     0.769860000000   
C      0.194616666667     0.250850000000     0.646685000000   
C      0.045903333333     0.123510000000     0.797860000000   
C      0.020800000000     0.085705000000     0.996815000000   
C      0.312980000000     0.210580000000     0.637080000000   
C      0.000306666667     0.251130000000     0.627455000000   
C      0.324796666667     0.289880000000     0.643230000000   
C      0.027950000000     0.250850000000     0.603315000000   
C      0.027950000000     0.499150000000     0.853315000000   
C      0.018203333333     0.119585000000     0.519860000000   
C      0.300846666667     0.108115000000     0.736110000000   
C      0.045903333333     0.126490000000     0.547860000000   
C      0.145866666667     0.414295000000     0.746815000000   
C      0.010373333333     0.326725000000     0.633820000000   
C      0.169033333333     0.417520000000     0.718935000000   
C      0.045516666667     0.289215000000     0.595335000000   
Cd     0.062733333333     0.391995000000     0.591005000000   
Cd     0.062733333333     0.358005000000     0.841005000000   
Cd     0.229400000000     0.358005000000     0.908995000000   
Cd     0.270600000000     0.141995000000     0.658995000000   
Cd     0.270600000000     0.108005000000     0.908995000000   
Cd     0.103933333333     0.108005000000     0.841005000000   
Cd     0.229400000000     0.391995000000     0.658995000000   
Cd     0.103933333333     0.141995000000     0.591005000000   
H      0.281800000000     0.161150000000     0.983150000000   
H      0.298466666667     0.274700000000     0.907600000000   
H      0.038466666667     0.064750000000     0.500200000000   
H      0.201533333333     0.225300000000     0.657600000000   
H      0.131800000000     0.475300000000     0.592400000000   
H      0.051533333333     0.411150000000     0.766850000000   
H      0.102400000000     0.038600000000     0.578950000000   
H      0.000633333333     0.059500000000     0.953450000000   
H      0.269066666667     0.211400000000     0.921050000000   
H      0.332700000000     0.309500000000     0.796550000000   
H      0.329100000000     0.147450000000     0.855300000000   
H      0.294866666667     0.314750000000     0.749800000000   
H      0.193600000000     0.041250000000     0.659950000000   
H      0.166033333333     0.440500000000     0.703450000000   
H      0.218200000000     0.338850000000     0.733150000000   
H      0.026933333333     0.208750000000     0.840050000000   
H      0.180300000000     0.329000000000     0.779550000000   
H      0.013633333333     0.421000000000     0.720450000000   
H      0.128200000000     0.435250000000     0.750200000000   
H      0.319700000000     0.171000000000     0.529550000000   
H      0.162433333333     0.102550000000     0.644700000000   
H      0.026933333333     0.041250000000     0.590050000000   
H      0.170900000000     0.352550000000     0.605300000000   
H      0.139733333333     0.458750000000     0.840050000000   
H      0.115133333333     0.161150000000     0.766850000000   
H      0.153033333333     0.171000000000     0.720450000000   
H      0.205133333333     0.064750000000     0.749800000000   
H      0.167300000000     0.059500000000     0.796550000000   
H      0.230933333333     0.288600000000     0.671050000000   
H      0.193600000000     0.208750000000     0.909950000000   
H      0.034866666667     0.024700000000     0.842400000000   
H      0.162433333333     0.147450000000     0.894700000000   
H      0.102400000000     0.211400000000     0.828950000000   
H      0.034866666667     0.225300000000     0.592400000000   
H      0.064266666667     0.288600000000     0.578950000000   
H      0.004233333333     0.352550000000     0.644700000000   
H      0.306400000000     0.291250000000     0.659950000000   
H      0.281800000000     0.088850000000     0.733150000000   
H      0.319700000000     0.079000000000     0.779550000000   
H      0.038466666667     0.185250000000     0.750200000000   
H      0.000633333333     0.190500000000     0.703450000000   
H      0.131800000000     0.274700000000     0.842400000000   
H      0.170900000000     0.397450000000     0.855300000000   
H      0.230933333333     0.461400000000     0.921050000000   
H      0.201533333333     0.024700000000     0.907600000000   
H      0.218200000000     0.411150000000     0.983150000000   
H      0.139733333333     0.291250000000     0.590050000000   
H      0.115133333333     0.088850000000     0.516850000000   
H      0.153033333333     0.079000000000     0.970450000000   
H      0.205133333333     0.185250000000     0.999800000000   
H      0.167300000000     0.190500000000     0.546550000000   
H      0.306400000000     0.458750000000     0.909950000000   
H      0.166033333333     0.309500000000     0.953450000000   
H      0.298466666667     0.475300000000     0.657600000000   
H      0.128200000000     0.314750000000     0.500200000000   
H      0.329100000000     0.102550000000     0.605300000000   
H      0.051533333333     0.338850000000     0.516850000000   
H      0.013633333333     0.329000000000     0.970450000000   
H      0.294866666667     0.435250000000     0.999800000000   
H      0.332700000000     0.440500000000     0.546550000000   
H      0.004233333333     0.397450000000     0.894700000000   
H      0.064266666667     0.461400000000     0.828950000000   
H      0.180300000000     0.421000000000     0.529550000000   
H      0.269066666667     0.038600000000     0.671050000000   
N      0.195663333333     0.360230000000     0.962625000000   
N      0.195663333333     0.389770000000     0.712625000000   
N      0.129933333333     0.077040000000     0.610095000000   
N      0.129933333333     0.172960000000     0.860095000000   
N      0.028996666667     0.360230000000     0.787375000000   
N      0.036733333333     0.422960000000     0.860095000000   
N      0.304336666667     0.110230000000     0.962625000000   
N      0.304336666667     0.139770000000     0.712625000000   
N      0.036733333333     0.327040000000     0.610095000000   
N      0.296600000000     0.172960000000     0.889905000000   
N      0.137670000000     0.110230000000     0.787375000000   
N      0.203400000000     0.422960000000     0.889905000000   
N      0.028996666667     0.389770000000     0.537375000000   
N      0.296600000000     0.077040000000     0.639905000000   
N      0.203400000000     0.327040000000     0.639905000000   
N      0.137670000000     0.139770000000     0.537375000000   
O      0.283916666667     0.035280000000     0.902995000000   
O      0.326413333333     0.074990000000     0.879420000000   
O      0.103090000000     0.405425000000     0.808540000000   
O      0.269756666667     0.405425000000     0.941460000000   
O      0.173586666667     0.425010000000     0.629420000000   
O      0.216083333333     0.285280000000     0.902995000000   
O      0.173586666667     0.324990000000     0.879420000000   
O      0.115023333333     0.414315000000     0.558230000000   
O      0.103090000000     0.344575000000     0.558540000000   
O      0.283916666667     0.214720000000     0.652995000000   
O      0.326413333333     0.175010000000     0.629420000000   
O      0.051643333333     0.085685000000     0.808230000000   
O      0.063576666667     0.155425000000     0.808540000000   
O      0.117250000000     0.035280000000     0.847005000000   
O      0.159746666667     0.074990000000     0.870580000000   
O      0.218310000000     0.164315000000     0.691770000000   
O      0.230243333333     0.094575000000     0.691460000000   
O      0.049416666667     0.464720000000     0.597005000000   
O      0.006920000000     0.425010000000     0.620580000000   
O      0.281690000000     0.335685000000     0.941770000000   
O      0.051643333333     0.164315000000     0.558230000000   
O      0.117250000000     0.214720000000     0.597005000000   
O      0.159746666667     0.175010000000     0.620580000000   
O      0.218310000000     0.085685000000     0.941770000000   
O      0.230243333333     0.155425000000     0.941460000000   
O      0.049416666667     0.285280000000     0.847005000000   
O      0.006920000000     0.324990000000     0.870580000000   
O      0.281690000000     0.414315000000     0.691770000000   
O      0.269756666667     0.344575000000     0.691460000000   
O      0.216083333333     0.464720000000     0.652995000000   
O      0.115023333333     0.335685000000     0.808230000000   
O      0.063576666667     0.094575000000     0.558540000000   
C      0.169033333333     0.832480000000     0.468935000000   
C      0.009986666667     0.852030000000     0.485710000000   
C      0.315130000000     0.880415000000     0.480140000000   
C      0.032486666667     0.891885000000     0.263890000000   
C      0.312533333333     0.914295000000     0.003185000000   
C      0.002366666667     0.917520000000     0.031065000000   
C      0.010373333333     0.923275000000     0.383820000000   
C      0.020353333333     0.789420000000     0.362920000000   
C      0.045516666667     0.960785000000     0.345335000000   
C      0.333026666667     0.748870000000     0.372545000000   
C      0.008536666667     0.710120000000     0.356770000000   
C      0.212570000000     0.626490000000     0.202140000000   
C      0.322960000000     0.673275000000     0.366180000000   
C      0.194616666667     0.999150000000     0.396685000000   
C      0.212183333333     0.960785000000     0.404665000000   
C      0.287816666667     0.710785000000     0.404665000000   
C      0.177040000000     0.923275000000     0.366180000000   
C      0.158130000000     0.960120000000     0.356770000000   
C      0.166973333333     0.998870000000     0.372545000000   
C      0.146313333333     0.539420000000     0.362920000000   
C      0.212183333333     0.789215000000     0.154665000000   
C      0.134180000000     0.641885000000     0.263890000000   
C      0.156680000000     0.647970000000     0.235710000000   
C      0.184870000000     0.619585000000     0.230140000000   
C      0.032486666667     0.858115000000     0.013890000000   
C      0.009986666667     0.897970000000     0.235710000000   
C      0.020353333333     0.960580000000     0.112920000000   
C      0.333026666667     0.501130000000     0.122545000000   
C      0.177040000000     0.826725000000     0.116180000000   
C      0.212570000000     0.623510000000     0.452140000000   
C      0.158130000000     0.789880000000     0.106770000000   
C      0.166973333333     0.751130000000     0.122545000000   
C      0.146313333333     0.710580000000     0.112920000000   
C      0.134180000000     0.608115000000     0.013890000000   
C      0.156680000000     0.602030000000     0.485710000000   
C      0.184870000000     0.630415000000     0.480140000000   
C      0.300846666667     0.641885000000     0.486110000000   
C      0.187466666667     0.664295000000     0.003185000000   
C      0.164300000000     0.667520000000     0.031065000000   
C      0.287430000000     0.876490000000     0.202140000000   